199
Molecule Name
Ru         6.40080        0.84540        4.72090
P          5.22420        2.78280        5.27510
P          8.31160        2.24170        4.23550
O          5.88270        7.43910        1.44520
O          7.55660        7.13990        3.09430
O          7.40670        7.27960        5.95310
O          8.91110        7.09480        7.76920
C          5.65440        3.51400        6.89000
C          6.47730        2.93640        7.79420
H          6.98120        2.02280        7.55870
C          6.68600        3.61950        9.16550
C          6.01300        4.76720        9.46990
C          5.08650        5.41790        8.43180
C          4.94790        4.84780        7.21630
H          4.32680        5.31360        6.47860
C          3.47340        2.36380        5.43930
C          2.83010        2.40350        6.83590
H          3.42760        2.63540        7.69410
C          1.50470        2.16970        6.97700
C          0.65530        1.81340        5.73960
C          1.23470        1.74450        4.51030
C          2.73510        2.04740        4.35090
H          3.19510        2.00360        3.38560
C          5.36370        4.10620        4.05070
C          4.37160        4.28820        3.13350
H          3.51940        3.63430        3.13290
C          4.47290        5.45690        2.12190
H          3.72020        5.60620        1.38330
C          5.53840        6.28900        2.21880
C          7.33080        7.51180        1.69010
H          7.70490        8.49870        1.49290
H          7.83550        6.81510        1.04630
C          6.58720        6.10450        3.24110
C          6.54990        5.08880        4.11550
C          7.63440        4.92830        5.17050
C          7.92470        5.95850        5.97120
C          7.60760        7.63180        7.35970
H          7.56940        8.69430        7.49460
H          6.83750        7.17600        7.95120
C          8.87590        5.84090        7.09840
C          9.53960        4.69410        7.36750
H         10.20350        4.61250        8.19730
C          9.30700        3.50510        6.41250
H          9.85240        2.58860        6.54090
C          8.41790        3.62750        5.37700
C          8.40950        2.94870        2.53690
C          7.92020        2.21080        1.29510
H          7.41060        1.27870        1.40050
C          8.14580        2.74520        0.06250
C          8.87720        4.09990       -0.09490
C          9.28580        4.77990        1.00180
C          9.03720        4.17320        2.39680
H          9.36340        4.71060        3.26780
C          9.92790        1.42420        4.32440
C         10.88440        1.75740        3.38110
H         10.64920        2.45170        2.59550
C         12.29710        1.15020        3.45760
C         12.58460        0.28390        4.45800
C         11.50110       -0.09050        5.49960
C         10.25000        0.42350        5.41260
H          9.49420        0.15230        6.11560
O          6.95750        0.17310        5.98970
O          5.37190       -0.22590        5.12760
C          7.47440       -0.45110        7.16780
C          4.41650       -1.22070        5.50520
C          8.16730        0.40150        8.24690
H          8.51660        1.31400        7.81070
H          7.47050        0.62340        9.02800
H          8.99630       -0.14040        8.65190
C          4.26370       -1.61480        6.98600
H          4.80390       -2.51950        7.17190
H          4.65260       -0.83350        7.60500
H          3.22820       -1.76530        7.21000
O          3.70030       -1.77510        4.63160
O          7.36510       -1.69480        7.32580
C         13.36230        1.50890        2.40480
C         11.83590       -1.06730        6.64210
C         14.66580        0.74930        2.71410
H         14.47900       -0.30400        2.69070
H         15.40520        0.99680        1.98130
H         15.01890        1.02750        3.68510
C         12.85590        1.11100        1.00590
H         12.19480        0.27400        1.09070
H         12.33320        1.93560        0.56800
H         13.68800        0.84710        0.38720
C         13.63050        3.02490        2.44170
H         12.88800        3.53260        1.86220
H         13.59030        3.36970        3.45380
H         14.59950        3.22570        2.03470
C         13.31810       -1.47520        6.55100
H         13.49560       -1.96840        5.61810
H         13.93300       -0.60190        6.61540
H         13.55560       -2.13880        7.35610
C         10.95010       -2.32130        6.52140
H         10.23740       -2.33260        7.31940
H         10.43520       -2.30540        5.58360
H         11.56220       -3.19710        6.57750
C         11.57430       -0.38240        7.99630
H         11.51250        0.67640        7.85450
H         10.65340       -0.74180        8.40580
H         12.37530       -0.60580        8.66970
C         10.00660        6.13250        0.85160
C         11.37450        5.91340        0.17910
H         11.54230        6.68150       -0.54660
H         12.14580        5.94800        0.91990
H         11.38590        4.95830       -0.30330
C          9.15290        7.07550       -0.01650
H          8.19870        6.62670       -0.19840
H          9.01790        8.00600        0.49420
H          9.64890        7.24890       -0.94860
C         10.21300        6.76130        2.24220
H         10.06700        7.81950        2.18040
H          9.50840        6.34370        2.93070
H         11.20710        6.55760        2.58170
C          7.68340        1.97910       -1.19080
C          8.50550        2.44220       -2.40790
H          8.32790        1.78140       -3.23060
H          8.21350        3.43530       -2.67860
H          9.54640        2.43150       -2.16020
C          6.19040        2.26050       -1.44270
H          5.59930        1.68820       -0.75870
H          5.99450        3.30240       -1.29820
H          5.94020        1.98640       -2.44630
C          7.89180        0.46860       -0.97520
H          8.84140        0.30230       -0.51090
H          7.11520        0.08770       -0.34540
H          7.86370       -0.03370       -1.91960
C          0.39140        1.36000        3.28040
C          1.26940        0.59070        2.27600
H          1.98100        1.25970        1.83890
H          1.78560       -0.19710        2.78370
H          0.65170        0.17510        1.50750
C         -0.15450        2.63600        2.61310
H          0.48040        2.91120        1.79700
H         -1.14390        2.45280        2.24920
H         -0.17930        3.43050        3.32940
C         -0.78420        0.46870        3.72240
H         -1.47500        1.04890        4.29780
H         -1.27970        0.07760        2.85850
H         -0.41460       -0.33960        4.31810
C          0.85050        2.26430        8.36800
C          1.80340        1.67510        9.42460
H          2.24000        0.77370        9.04810
H          2.57650        2.38230        9.64150
H          1.25580        1.46000       10.31830
C          0.56390        3.74020        8.70120
H         -0.36930        3.81420        9.21940
H          1.34720        4.12460        9.32050
H          0.51460        4.30740        7.79520
C         -0.47010        1.47200        8.36900
H         -0.86060        1.43080        9.36440
H         -1.17710        1.95630        7.72830
H         -0.29020        0.47840        8.01500
C          7.64710        2.99940       10.19670
C          9.03210        2.80100        9.55320
H          9.64180        3.65860        9.74740
H          9.49710        1.93140        9.96840
H          8.91970        2.67530        8.49660
C          7.77460        3.93940       11.40980
H          6.81760        4.05410       11.87440
H          8.46480        3.52250       12.11320
H          8.13010        4.89490       11.08480
C          7.09580        1.63760       10.65830
H          6.33160        1.31460        9.98250
H          7.88760        0.91810       10.67140
H          6.68490        1.73380       11.64150
C          4.30710        6.70140        8.77350
C          5.26280        7.72870        9.40820
H          5.47550        8.50270        8.70070
H          4.80350        8.15480       10.27560
H          6.17350        7.24250        9.68940
C          3.17880        6.36770        9.76710
H          3.16290        7.09940       10.54760
H          2.23950        6.37220        9.25470
H          3.35020        5.39960       10.18930
C          3.70030        7.29130        7.48690
H          4.48600        7.55170        6.80880
H          3.06010        6.56620        7.02950
H          3.13320        8.16600        7.72850
O          9.04470        4.51170       -1.06820
O          6.13140        5.21950       10.43240
O         -0.39230        1.62490        5.84920
O         13.56650       -0.13450        4.53310
C         -1.79230        1.37280        5.99560
H         -2.30180        1.65880        5.09920
H         -1.94980        0.33040        6.17830
H         -2.17270        1.94070        6.81870
C          6.28970        5.82410       11.71860
H          6.06870        5.10550       12.48000
H          7.29790        6.16430       11.83110
H          5.62100        6.65470       11.80700
C         14.87890       -0.69360        4.63340
H         15.08640       -1.27540        3.75980
H         15.59720        0.09510        4.71570
H         14.93490       -1.31880        5.50000
C          9.26840        5.06200       -2.36890
H          9.87490        4.39100       -2.94060
H          8.32980        5.20310       -2.86280
H          9.76800        6.00370       -2.27670
