      -----------------------------------------------------------      
     |                   =====================                   |     
     |                           x T B                           |     
     |                   =====================                   |     
     |                         S. Grimme                         |     
     |          Mulliken Center for Theoretical Chemistry        |     
     |                    University of Bonn                     |     
      -----------------------------------------------------------      

   * xtb version 6.7.1 (edcfbbe) compiled by 'albert@albert-system' on 2024-07-22

   xtb is free software: you can redistribute it and/or modify it under
   the terms of the GNU Lesser General Public License as published by
   the Free Software Foundation, either version 3 of the License, or
   (at your option) any later version.
   
   xtb is distributed in the hope that it will be useful,
   but WITHOUT ANY WARRANTY; without even the implied warranty of
   MERCHANTABILITY or FITNESS FOR A PARTICULAR PURPOSE.  See the
   GNU Lesser General Public License for more details.
   
   Cite this work as:
   * C. Bannwarth, E. Caldeweyher, S. Ehlert, A. Hansen, P. Pracht,
     J. Seibert, S. Spicher, S. Grimme, WIREs Comput. Mol. Sci., 2020, 11,
     e01493. DOI: 10.1002/wcms.1493
   
   for GFN2-xTB:
   * C. Bannwarth, S. Ehlert and S. Grimme., J. Chem. Theory Comput., 2019,
     15, 1652-1671. DOI: 10.1021/acs.jctc.8b01176
   for GFN1-xTB:
   * S. Grimme, C. Bannwarth, P. Shushkov, J. Chem. Theory Comput., 2017,
     13, 1989-2009. DOI: 10.1021/acs.jctc.7b00118
   for GFN0-xTB:
   * P. Pracht, E. Caldeweyher, S. Ehlert, S. Grimme, ChemRxiv, 2019, preprint.
     DOI: 10.26434/chemrxiv.8326202.v1
   for GFN-FF:
   * S. Spicher and S. Grimme, Angew. Chem. Int. Ed., 2020, 59, 15665-15673.
     DOI: 10.1002/anie.202004239
   
   for ALPB and GBSA implicit solvation:
   * S. Ehlert, M. Stahn, S. Spicher, S. Grimme, J. Chem. Theory Comput.,
     2021, 17, 4250-4261. DOI: 10.1021/acs.jctc.1c00471
   
   for ddCOSMO and CPCM-X implicit solvation:
   * M. Stahn, S. Ehlert, S. Grimme, J. Phys. Chem. A,
     2023, XX, XXXX-XXXX. DOI: 10.1021/acs.jpca.3c04382
   
   for DFT-D4:
   * E. Caldeweyher, C. Bannwarth and S. Grimme, J. Chem. Phys., 2017,
     147, 034112. DOI: 10.1063/1.4993215
   * E. Caldeweyher, S. Ehlert, A. Hansen, H. Neugebauer, S. Spicher,
     C. Bannwarth and S. Grimme, J. Chem. Phys., 2019, 150, 154122.
     DOI: 10.1063/1.5090222
   * E. Caldeweyher, J.-M. Mewes, S. Ehlert and S. Grimme, Phys. Chem. Chem. Phys.
     2020, 22, 8499-8512. DOI: 10.1039/D0CP00502A
   
   for sTDA-xTB:
   * S. Grimme and C. Bannwarth, J. Chem. Phys., 2016, 145, 054103.
     DOI: 10.1063/1.4959605
   
   in the mass-spec context:
   * V. Asgeirsson, C. Bauer and S. Grimme, Chem. Sci., 2017, 8, 4879.
     DOI: 10.1039/c7sc00601b
   * J. Koopman and S. Grimme, ACS Omega 2019, 4, 12, 15120-15133.
     DOI: 10.1021/acsomega.9b02011
   
   for metadynamics refer to:
   * S. Grimme, J. Chem. Theory Comput., 2019, 155, 2847-2862
     DOI: 10.1021/acs.jctc.9b00143
   
   for SPH calculations refer to:
   * S. Spicher and S. Grimme, J. Chem. Theory Comput., 2021, 17, 1701-1714
     DOI: 10.1021/acs.jctc.0c01306
   
   for ONIOM refer to:
   * C. Plett, A. Katbashev, S. Ehlert, S. Grimme, M. Bursch,
     Phys. Chem. Chem. Phys., 2023, 25, 17860-17868. DOI: 10.1039/D3CP02178E
   
   for DIPRO refer to:
   * J. Kohn, N. Gildemeister, S. Grimme, D. Fazzi, A. Hansen,
     J. Chem. Phys., 2023, just accepted.
   
   for PTB refer to:
   * S. Grimme, M. Mueller, A. Hansen, J. Chem. Phys., 2023, 158, 124111.
     DOI: 10.1063/5.0137838
   
   with help from (in alphabetical order)
   P. Atkinson, C. Bannwarth, F. Bohle, G. Brandenburg, E. Caldeweyher
   M. Checinski, S. Dohm, S. Ehlert, S. Ehrlich, I. Gerasimov, C. Hölzer
   A. Katbashev, J. Kohn, J. Koopman, C. Lavigne, S. Lehtola, F. März, M. Müller,
   F. Musil, H. Neugebauer, J. Pisarek, C. Plett, P. Pracht, F. Pultar,
   J. Seibert, P. Shushkov, S. Spicher, M. Stahn, M. Steiner, T. Strunk,
   J. Stückrath, T. Rose, and J. Unsleber
   
 * started run on 2026/07/14 at 21:35:16.395     
   ID    Z sym.   atoms
    1   44 Ru     1
    2   15 P      2, 3
    3    8 O      4-7, 62, 63, 74, 75, 180-183
    4    6 C      8, 9, 11-14, 16, 17, 19-22, 24, 25, 27, 29, 30, 33-37, 40,
                  41, 43, 45-47, 49-52, 54, 55, 57-60, 64-66, 70, 76-78, 82,
                  86, 90, 94, 98, 102, 103, 107, 111, 115, 116, 120, 124,
                  128, 129, 133, 137, 141, 142, 146, 150, 154, 155, 159, 163,
                  167, 168, 172, 176, 184, 188, 192, 196
    5    1 H      10, 15, 18, 23, 26, 28, 31, 32, 38, 39, 42, 44, 48, 53, 56,
                  61, 67-69, 71-73, 79-81, 83-85, 87-89, 91-93, 95-97,
                  99-101, 104-106, 108-110, 112-114, 117-119, 121-123,
                  125-127, 130-132, 134-136, 138-140, 143-145, 147-149,
                  151-153, 156-158, 160-162, 164-166, 169-171, 173-175,
                  177-179, 185-187, 189-191, 193-195, 197-199

           -------------------------------------------------
          |                Calculation Setup                |
           -------------------------------------------------

          program call               : xtb CAT-63.xyz --gfn 1 --chrg 0 --uhf 0 --norestart --omd --input xtb_md.inp
          coordinate file            : CAT-63.xyz
          omp threads                :                    32


           -------------------------------------------------
          |                 G F N 1 - x T B                 |
           -------------------------------------------------

        Reference                      10.1021/acs.jctc.7b00118
      * Hamiltonian:
        H0-scaling (s, p, d)           1.850000    2.250000    2.000000
        zeta-weighting                 0.000000
      * Dispersion:
        s8                             2.400000
        a1                             0.630000
        a2                             5.000000
        s9                             0.000000
      * Repulsion:
        kExp                           1.500000
        rExp                           1.000000
      * Coulomb:
        alpha                          2.000000
        third order                    atomic
        anisotropic                    false
      * Halogen bond correction:
        rad-scale                      1.300000
        damping                        0.440000


          ...................................................
          :                      SETUP                      :
          :.................................................:
          :  # basis functions                 602          :
          :  # atomic orbitals                 599          :
          :  # shells                          401          :
          :  # electrons                       508          :
          :  # halogen bonds                     0          :
          :  max. iterations                   250          :
          :  Hamiltonian                  GFN1-xTB          :
          :  restarted?                      false          :
          :  GBSA solvation                  false          :
          :  PC potential                    false          :
          :  electronic temp.          300.0000000     K    :
          :  accuracy                    1.0000000          :
          :  -> integral cutoff          0.2500000E+02      :
          :  -> integral neglect         0.1000000E-07      :
          :  -> SCF convergence          0.1000000E-05 Eh   :
          :  -> wf. convergence          0.2000000E-04 e    :
          :  Broyden damping             0.4000000          :
          :  net charge                          0          :
          :  unpaired electrons                  0          :
          ...................................................

 iter      E             dE          RMSdq      gap      omega  full diag
   1   -288.5245052 -0.288525E+03  0.898E+00    0.52       0.0  T
   2   -283.9954458  0.452906E+01  0.667E+00    0.17       1.0  T
   3   -269.1244167  0.148710E+02  0.582E+00    0.15       1.0  T
   4   -262.1680244  0.695639E+01  0.533E+00    0.15       1.0  T
   5   -286.8603833 -0.246924E+02  0.301E+00    0.10       1.0  T
   6   -289.2598722 -0.239949E+01  0.158E+00    0.39       1.0  T
   7   -289.5819280 -0.322056E+00  0.129E+00    0.99       1.0  T
   8   -289.8330676 -0.251140E+00  0.744E-01    0.69       1.0  T
   9   -289.8713749 -0.383073E-01  0.454E-01    0.66       1.0  T
  10   -289.9290862 -0.577113E-01  0.191E-01    0.53       1.0  T
  11   -289.9460184 -0.169322E-01  0.750E-02    0.52       1.0  T
  12   -289.9483621 -0.234373E-02  0.502E-02    0.50       1.0  T
  13   -289.9494821 -0.111994E-02  0.268E-02    0.49       1.0  T
  14   -289.9498489 -0.366820E-03  0.123E-02    0.48       1.0  T
  15   -289.9499191 -0.702318E-04  0.638E-03    0.48       1.1  T
  16   -289.9499337 -0.146303E-04  0.297E-03    0.48       2.4  T
  17   -289.9499374 -0.360492E-05  0.178E-03    0.48       4.0  T
  18   -289.9499384 -0.109760E-05  0.432E-04    0.48      16.4  T
  19   -289.9499385 -0.439566E-07  0.173E-04    0.48      41.0  T
  20   -289.9499385 -0.824667E-08  0.948E-05    0.48      74.7  T

   *** convergence criteria satisfied after 20 iterations ***

         #    Occupation            Energy/Eh            Energy/eV
      -------------------------------------------------------------
         1        2.0000           -0.8936723             -24.3181
       ...           ...                  ...                  ...
       248        2.0000           -0.3775092             -10.2725
       249        2.0000           -0.3721546             -10.1268
       250        2.0000           -0.3706085             -10.0848
       251        2.0000           -0.3644368              -9.9168
       252        2.0000           -0.3389835              -9.2242
       253        2.0000           -0.3259794              -8.8704
       254        1.9998           -0.3027713              -8.2388 (HOMO)
       255        0.0002           -0.2852050              -7.7608 (LUMO)
       256                         -0.2696121              -7.3365
       257                         -0.2608721              -7.0987
       258                         -0.2566962              -6.9851
       259                         -0.2527994              -6.8790
       ...                                ...                  ...
       599                          1.5759939              42.8850
      -------------------------------------------------------------
                  HL-Gap            0.0175663 Eh            0.4780 eV
             Fermi-level           -0.2939882 Eh           -7.9998 eV

 SCC (total)                   0 d,  0 h,  0 min,  0.664 sec
 SCC setup                      ...        0 min,  0.006 sec (  0.954%)
 Dispersion                     ...        0 min,  0.005 sec (  0.721%)
 classical contributions        ...        0 min,  0.000 sec (  0.057%)
 integral evaluation            ...        0 min,  0.021 sec (  3.128%)
 iterations                     ...        0 min,  0.591 sec ( 88.885%)
 molecular gradient             ...        0 min,  0.036 sec (  5.435%)
 printout                       ...        0 min,  0.005 sec (  0.810%)

         :::::::::::::::::::::::::::::::::::::::::::::::::::::
         ::                     SUMMARY                     ::
         :::::::::::::::::::::::::::::::::::::::::::::::::::::
         :: total energy            -285.989748332909 Eh    ::
         :: gradient norm              1.726790625492 Eh/a0 ::
         :: HOMO-LUMO gap              0.478004059274 eV    ::
         ::.................................................::
         :: SCC energy              -289.949938501228 Eh    ::
         :: -> electrostatic           0.473186526157 Eh    ::
         :: repulsion energy           4.179245928437 Eh    ::
         :: dispersion energy         -0.219055760119 Eh    ::
         :: halogen bond corr.         0.000000000000 Eh    ::
         :: add. restraining           0.000000000000 Eh    ::
         :: total charge              -0.000000000014 e     ::
         :::::::::::::::::::::::::::::::::::::::::::::::::::::

      ----------------------------------------------------------- 
     |                   =====================                   |
     |                        A N C O P T                        |
     |                   =====================                   |
     |               Approximate Normal Coordinate               |
     |                Rational Function Optimizer                |
      ----------------------------------------------------------- 
      ----------------------------------------------------------- 
     |                   =====================                   |
     |                        A N C O P T                        |
     |                   =====================                   |
     |               Approximate Normal Coordinate               |
     |                Rational Function Optimizer                |
      ----------------------------------------------------------- 

          ...................................................
          :                      SETUP                      :
          :.................................................:
          :   optimization level             loose          :
          :   max. optcycles                   398          :
          :   ANC micro-cycles                  20          :
          :   degrees of freedom               591          :
          :.................................................:
          :   RF solver                   davidson          :
          :   write xtbopt.log                true          :
          :   linear?                        false          :
          :   energy convergence         0.5000000E-04 Eh   :
          :   grad. convergence          0.4000000E-02 Eh/α :
          :   maxmium RF displ.          1.0000000          :
          :   Hlow (freq-cutoff)         0.1000000E-01      :
          :   Hmax (freq-cutoff)         5.0000000          :
          :   S6 in model hess.         20.0000000          :
          ...................................................

generating ANC from exact Hessian ...
Using Lindh-Hessian (1995)
 Shifting diagonal of input Hessian by   1.201204627069415E-002
 Lowest  eigenvalues of input Hessian
    0.010000    0.010401    0.010756    0.011947    0.011968    0.000000
    0.000000    0.000000    0.000000    0.000000    0.000000    0.012049
    0.012056    0.012075    0.012118    0.012121    0.012136    0.012158
 Highest eigenvalues
    2.268962    2.680795    3.230030    3.230186    3.230278    3.233627
 

........................................................................
.............................. CYCLE    1 ..............................
........................................................................

 iter      E             dE          RMSdq      gap      omega  full diag
   1   -289.9499385 -0.289950E+03  0.383E-05    0.48       0.0  T
   2   -289.9499385  0.912337E-10  0.407E-05    0.48     174.4  T
   3   -289.9499385 -0.652562E-09  0.193E-05    0.48     367.2  T
     SCC iter.                  ...        0 min,  0.088 sec
     gradient                   ...        0 min,  0.035 sec
 * total energy  :  -285.9897483 Eh     change       -0.3195282E-08 Eh
   gradient norm :     1.7267860 Eh/α   predicted     0.0000000E+00 (-100.00%)
   displ. norm   :     0.5641723 α      lambda       -0.8914656E+00
   maximum displ.:     0.2157735 α      in ANC's #587, #588, #590, ...

........................................................................
.............................. CYCLE    2 ..............................
........................................................................

 iter      E             dE          RMSdq      gap      omega  full diag
   1   -290.0918938 -0.290092E+03  0.550E-01    0.58       0.0  T
   2   -290.1052770 -0.133832E-01  0.397E-01    0.43       1.0  T
   3   -290.1413563 -0.360792E-01  0.262E-01    0.55       1.0  T
   4   -290.1735022 -0.321459E-01  0.651E-02    0.50       1.0  T
   5   -290.1719198  0.158239E-02  0.599E-02    0.50       1.0  T
   6   -290.1737768 -0.185708E-02  0.256E-02    0.49       1.0  T
   7   -290.1741007 -0.323822E-03  0.109E-02    0.50       1.0  T
   8   -290.1741709 -0.702157E-04  0.348E-03    0.49       2.0  T
   9   -290.1741813 -0.103857E-04  0.126E-03    0.49       5.6  T
  10   -290.1741817 -0.464447E-06  0.503E-04    0.49      14.1  T
  11   -290.1741818 -0.534877E-07  0.142E-04    0.49      50.0  T
  12   -290.1741818 -0.326372E-08  0.489E-05    0.49     145.1  T
     SCC iter.                  ...        0 min,  0.378 sec
     gradient                   ...        0 min,  0.036 sec
 * total energy  :  -286.5779392 Eh     change       -0.5881909E+00 Eh
   gradient norm :     0.6483872 Eh/α   predicted    -0.5876075E+00 (  -0.10%)
   displ. norm   :     0.5915006 α      lambda       -0.2923389E+00
   maximum displ.:     0.1623065 α      in ANC's #587, #240, #390, ...

........................................................................
.............................. CYCLE    3 ..............................
........................................................................

 iter      E             dE          RMSdq      gap      omega  full diag
   1   -290.3011255 -0.290301E+03  0.207E-01    0.55       0.0  T
   2   -290.3042306 -0.310508E-02  0.135E-01    0.50       1.0  T
   3   -290.3076088 -0.337819E-02  0.922E-02    0.53       1.0  T
   4   -290.3116255 -0.401669E-02  0.273E-02    0.52       1.0  T
   5   -290.3114546  0.170881E-03  0.239E-02    0.52       1.0  T
   6   -290.3116865 -0.231930E-03  0.126E-02    0.51       1.0  T
   7   -290.3118070 -0.120501E-03  0.383E-03    0.52       1.9  T
   8   -290.3118150 -0.796837E-05  0.104E-03    0.51       6.8  T
   9   -290.3118157 -0.742562E-06  0.319E-04    0.51      22.2  T
  10   -290.3118158 -0.444822E-07  0.144E-04    0.51      49.1  T
  11   -290.3118158 -0.822661E-08  0.528E-05    0.51     134.2  T
     SCC iter.                  ...        0 min,  0.332 sec
     gradient                   ...        0 min,  0.034 sec
 * total energy  :  -286.8014184 Eh     change       -0.2234792E+00 Eh
   gradient norm :     0.3098514 Eh/α   predicted    -0.1973104E+00 ( -11.71%)
   displ. norm   :     0.6723491 α      lambda       -0.1547303E+00
   maximum displ.:     0.1629599 α      in ANC's #240, #587, #147, ...

........................................................................
.............................. CYCLE    4 ..............................
........................................................................

 iter      E             dE          RMSdq      gap      omega  full diag
   1   -290.3954331 -0.290395E+03  0.140E-01    0.51       0.0  T
   2   -290.3954801 -0.469951E-04  0.113E-01    0.47       1.0  T
   3   -290.3990941 -0.361398E-02  0.635E-02    0.50       1.0  T
   4   -290.4011969 -0.210282E-02  0.196E-02    0.49       1.0  T
   5   -290.4012360 -0.390903E-04  0.137E-02    0.49       1.0  T
   6   -290.4012822 -0.462290E-04  0.919E-03    0.49       1.0  T
   7   -290.4013465 -0.643096E-04  0.246E-03    0.49       2.9  T
   8   -290.4013496 -0.305905E-05  0.714E-04    0.49       9.9  T
   9   -290.4013499 -0.342123E-06  0.229E-04    0.49      30.9  T
  10   -290.4013499 -0.245633E-07  0.992E-05    0.49      71.5  T
  11   -290.4013499 -0.477581E-08  0.336E-05    0.49     211.1  T
     SCC iter.                  ...        0 min,  0.332 sec
     gradient                   ...        0 min,  0.033 sec
 * total energy  :  -286.9176397 Eh     change       -0.1162213E+00 Eh
   gradient norm :     0.1316223 Eh/α   predicted    -0.1123385E+00 (  -3.34%)
   displ. norm   :     0.7722576 α      lambda       -0.8248711E-01
   maximum displ.:     0.1704862 α      in ANC's #59, #53, #147, ...

........................................................................
.............................. CYCLE    5 ..............................
........................................................................

 iter      E             dE          RMSdq      gap      omega  full diag
   1   -290.4442973 -0.290444E+03  0.781E-02    0.48       0.0  T
   2   -290.4438928  0.404454E-03  0.761E-02    0.45       1.0  T
   3   -290.4459690 -0.207615E-02  0.292E-02    0.47       1.0  T
   4   -290.4463740 -0.405025E-03  0.131E-02    0.46       1.0  T
   5   -290.4464461 -0.721597E-04  0.654E-03    0.47       1.1  T
   6   -290.4464560 -0.983789E-05  0.484E-03    0.46       1.5  T
   7   -290.4464737 -0.177042E-04  0.147E-03    0.47       4.8  T
   8   -290.4464749 -0.120509E-05  0.380E-04    0.47      18.6  T
   9   -290.4464750 -0.936311E-07  0.140E-04    0.47      50.7  T
  10   -290.4464750 -0.110726E-07  0.417E-05    0.47     170.1  T
     SCC iter.                  ...        0 min,  0.274 sec
     gradient                   ...        0 min,  0.057 sec
 * total energy  :  -286.9858519 Eh     change       -0.6821218E-01 Eh
   gradient norm :     0.0859892 Eh/α   predicted    -0.6584149E-01 (  -3.48%)
   displ. norm   :     0.8047306 α      lambda       -0.5730693E-01
   maximum displ.:     0.2117728 α      in ANC's #59, #53, #131, ...

........................................................................
.............................. CYCLE    6 ..............................
........................................................................

 iter      E             dE          RMSdq      gap      omega  full diag
   1   -290.4727129 -0.290473E+03  0.579E-02    0.45       0.0  T
   2   -290.4723354  0.377483E-03  0.599E-02    0.43       1.0  T
   3   -290.4735724 -0.123701E-02  0.191E-02    0.44       1.0  T
   4   -290.4737294 -0.156950E-03  0.106E-02    0.44       1.0  T
   5   -290.4737870 -0.575850E-04  0.430E-03    0.44       1.7  T
   6   -290.4737888 -0.187620E-05  0.340E-03    0.44       2.1  T
   7   -290.4737978 -0.900927E-05  0.103E-03    0.44       6.9  T
   8   -290.4737985 -0.639913E-06  0.257E-04    0.44      27.5  T
   9   -290.4737985 -0.401924E-07  0.888E-05    0.44      79.8  T
  10   -290.4737985 -0.423233E-08  0.284E-05    0.44     249.7  T
     SCC iter.                  ...        0 min,  0.308 sec
     gradient                   ...        0 min,  0.049 sec
 * total energy  :  -287.0351924 Eh     change       -0.4934045E-01 Eh
   gradient norm :     0.0658044 Eh/α   predicted    -0.4720923E-01 (  -4.32%)
   displ. norm   :     0.8298643 α      lambda       -0.4443511E-01
   maximum displ.:     0.2281580 α      in ANC's #59, #53, #49, ...

........................................................................
.............................. CYCLE    7 ..............................
........................................................................

 iter      E             dE          RMSdq      gap      omega  full diag
   1   -290.4922906 -0.290492E+03  0.465E-02    0.44       0.0  T
   2   -290.4920904  0.200192E-03  0.454E-02    0.43       1.0  T
   3   -290.4928069 -0.716489E-03  0.176E-02    0.43       1.0  T
   4   -290.4929314 -0.124438E-03  0.869E-03    0.43       1.0  T
   5   -290.4929512 -0.198586E-04  0.501E-03    0.43       1.4  T
   6   -290.4929610 -0.981897E-05  0.302E-03    0.43       2.4  T
   7   -290.4929686 -0.754008E-05  0.855E-04    0.43       8.3  T
   8   -290.4929691 -0.466195E-06  0.212E-04    0.43      33.5  T
   9   -290.4929691 -0.260223E-07  0.729E-05    0.43      97.3  T
  10   -290.4929691 -0.313901E-08  0.222E-05    0.43     319.2  T
     SCC iter.                  ...        0 min,  0.305 sec
     gradient                   ...        0 min,  0.031 sec
 * total energy  :  -287.0742052 Eh     change       -0.3901282E-01 Eh
   gradient norm :     0.0566685 Eh/α   predicted    -0.3751836E-01 (  -3.83%)
   displ. norm   :     0.8546238 α      lambda       -0.3690281E-01
   maximum displ.:     0.2438987 α      in ANC's #59, #53, #49, ...

........................................................................
.............................. CYCLE    8 ..............................
........................................................................

 iter      E             dE          RMSdq      gap      omega  full diag
   1   -290.5108800 -0.290511E+03  0.535E-02    0.43       0.0  T
   2   -290.5106073  0.272694E-03  0.480E-02    0.42       1.0  T
   3   -290.5112745 -0.667208E-03  0.225E-02    0.42       1.0  T
   4   -290.5114512 -0.176657E-03  0.126E-02    0.42       1.0  T
   5   -290.5115096 -0.584586E-04  0.497E-03    0.42       1.4  T
   6   -290.5115200 -0.104135E-04  0.268E-03    0.42       2.6  T
   7   -290.5115257 -0.562713E-05  0.940E-04    0.42       7.5  T
   8   -290.5115264 -0.706276E-06  0.246E-04    0.42      28.8  T
   9   -290.5115264 -0.376964E-07  0.802E-05    0.42      88.4  T
  10   -290.5115264 -0.341288E-08  0.275E-05    0.42     257.9  T
     SCC iter.                  ...        0 min,  0.297 sec
     gradient                   ...        0 min,  0.034 sec
 * total energy  :  -287.1067743 Eh     change       -0.3256913E-01 Eh
   gradient norm :     0.0517337 Eh/α   predicted    -0.3192798E-01 (  -1.97%)
   displ. norm   :     0.8707666 α      lambda       -0.3218001E-01
   maximum displ.:     0.2317368 α      in ANC's #59, #52, #49, ...

........................................................................
.............................. CYCLE    9 ..............................
........................................................................

 iter      E             dE          RMSdq      gap      omega  full diag
   1   -290.5252546 -0.290525E+03  0.605E-02    0.44       0.0  T
   2   -290.5253604 -0.105849E-03  0.413E-02    0.44       1.0  T
   3   -290.5255672 -0.206799E-03  0.284E-02    0.45       1.0  T
   4   -290.5258022 -0.234951E-03  0.151E-02    0.44       1.0  T
   5   -290.5258736 -0.714711E-04  0.694E-03    0.45       1.0  T
   6   -290.5258981 -0.244078E-04  0.334E-03    0.44       2.1  T
   7   -290.5259073 -0.927612E-05  0.106E-03    0.44       6.7  T
   8   -290.5259082 -0.890360E-06  0.241E-04    0.44      29.4  T
   9   -290.5259082 -0.198044E-07  0.116E-04    0.44      61.1  T
  10   -290.5259083 -0.917464E-08  0.343E-05    0.44     206.5  T
     SCC iter.                  ...        0 min,  0.294 sec
     gradient                   ...        0 min,  0.033 sec
 * total energy  :  -287.1342873 Eh     change       -0.2751293E-01 Eh
   gradient norm :     0.0515718 Eh/α   predicted    -0.2829004E-01 (   2.82%)
   displ. norm   :     0.8574626 α      lambda       -0.2743003E-01
   maximum displ.:     0.2279318 α      in ANC's #59, #52, #49, ...

........................................................................
.............................. CYCLE   10 ..............................
........................................................................

 iter      E             dE          RMSdq      gap      omega  full diag
   1   -290.5361476 -0.290536E+03  0.588E-02    0.45       0.0  T
   2   -290.5362797 -0.132090E-03  0.332E-02    0.45       1.0  T
   3   -290.5362106  0.690200E-04  0.285E-02    0.45       1.0  T
   4   -290.5364942 -0.283599E-03  0.155E-02    0.45       1.0  T
   5   -290.5365952 -0.100984E-03  0.475E-03    0.45       1.5  T
   6   -290.5365989 -0.371631E-05  0.289E-03    0.45       2.4  T
   7   -290.5366059 -0.701391E-05  0.840E-04    0.45       8.4  T
   8   -290.5366065 -0.517135E-06  0.198E-04    0.45      35.7  T
   9   -290.5366065 -0.941128E-08  0.751E-05    0.45      94.4  T
     SCC iter.                  ...        0 min,  0.279 sec
     gradient                   ...        0 min,  0.036 sec
 * total energy  :  -287.1575198 Eh     change       -0.2323254E-01 Eh
   gradient norm :     0.0503613 Eh/α   predicted    -0.2379887E-01 (   2.44%)
   displ. norm   :     0.8376097 α      lambda       -0.2299581E-01
   maximum displ.:     0.1919069 α      in ANC's #59, #52, #49, ...

........................................................................
.............................. CYCLE   11 ..............................
........................................................................

 iter      E             dE          RMSdq      gap      omega  full diag
   1   -290.5506444 -0.290551E+03  0.505E-02    0.45       0.0  T
   2   -290.5508324 -0.188002E-03  0.268E-02    0.45       1.0  T
   3   -290.5508202  0.122435E-04  0.196E-02    0.46       1.0  T
   4   -290.5508331 -0.128892E-04  0.152E-02    0.45       1.0  T
   5   -290.5509578 -0.124709E-03  0.384E-03    0.46       1.8  T
   6   -290.5509641 -0.637294E-05  0.147E-03    0.45       4.8  T
   7   -290.5509653 -0.112623E-05  0.726E-04    0.46       9.8  T
   8   -290.5509657 -0.412807E-06  0.215E-04    0.46      33.0  T
   9   -290.5509657 -0.246112E-07  0.675E-05    0.45     105.1  T
  10   -290.5509657 -0.215442E-08  0.258E-05    0.46     275.2  T
     SCC iter.                  ...        0 min,  0.284 sec
     gradient                   ...        0 min,  0.034 sec
 * total energy  :  -287.1779460 Eh     change       -0.2042622E-01 Eh
   gradient norm :     0.0504125 Eh/α   predicted    -0.1956473E-01 (  -4.22%)
   displ. norm   :     0.8507219 α      lambda       -0.2221017E-01
   maximum displ.:     0.1687104 α      in ANC's #52, #49, #59, ...

........................................................................
.............................. CYCLE   12 ..............................
........................................................................

 iter      E             dE          RMSdq      gap      omega  full diag
   1   -290.5660180 -0.290566E+03  0.551E-02    0.48       0.0  T
   2   -290.5662713 -0.253277E-03  0.274E-02    0.48       1.0  T
   3   -290.5661902  0.810636E-04  0.213E-02    0.48       1.0  T
   4   -290.5662536 -0.633795E-04  0.171E-02    0.48       1.0  T
   5   -290.5664340 -0.180372E-03  0.358E-03    0.48       2.0  T
   6   -290.5664311  0.287556E-05  0.305E-03    0.48       2.3  T
   7   -290.5664389 -0.776279E-05  0.458E-04    0.48      15.5  T
   8   -290.5664389 -0.651104E-07  0.155E-04    0.48      45.6  T
   9   -290.5664389 -0.133275E-08  0.810E-05    0.48      87.5  T
     SCC iter.                  ...        0 min,  0.277 sec
     gradient                   ...        0 min,  0.035 sec
 * total energy  :  -287.1976871 Eh     change       -0.1974108E-01 Eh
   gradient norm :     0.0459748 Eh/α   predicted    -0.1914214E-01 (  -3.03%)
   displ. norm   :     0.8397283 α      lambda       -0.2003899E-01
   maximum displ.:     0.1580729 α      in ANC's #98, #37, #51, ...

........................................................................
.............................. CYCLE   13 ..............................
........................................................................

 iter      E             dE          RMSdq      gap      omega  full diag
   1   -290.5789965 -0.290579E+03  0.643E-02    0.48       0.0  T
   2   -290.5794098 -0.413295E-03  0.332E-02    0.49       1.0  T
   3   -290.5794383 -0.284945E-04  0.255E-02    0.48       1.0  T
   4   -290.5795413 -0.103045E-03  0.161E-02    0.49       1.0  T
   5   -290.5796426 -0.101289E-03  0.688E-03    0.48       1.0  T
   6   -290.5796731 -0.305319E-04  0.177E-03    0.48       4.0  T
   7   -290.5796748 -0.163855E-05  0.109E-03    0.48       6.5  T
   8   -290.5796758 -0.101951E-05  0.287E-04    0.48      24.7  T
   9   -290.5796758 -0.406843E-07  0.968E-05    0.48      73.2  T
  10   -290.5796758 -0.348609E-08  0.271E-05    0.48     261.9  T
     SCC iter.                  ...        0 min,  0.288 sec
     gradient                   ...        0 min,  0.035 sec
 * total energy  :  -287.2139137 Eh     change       -0.1622663E-01 Eh
   gradient norm :     0.0488818 Eh/α   predicted    -0.1708468E-01 (   5.29%)
   displ. norm   :     0.7907710 α      lambda       -0.1653793E-01
   maximum displ.:     0.1604067 α      in ANC's #98, #37, #51, ...

........................................................................
.............................. CYCLE   14 ..............................
........................................................................

 iter      E             dE          RMSdq      gap      omega  full diag
   1   -290.5907606 -0.290591E+03  0.322E-02    0.51       0.0  T
   2   -290.5908876 -0.126974E-03  0.150E-02    0.52       1.0  T
   3   -290.5908796  0.796177E-05  0.109E-02    0.51       1.0  T
   4   -290.5908721  0.753754E-05  0.956E-03    0.52       1.0  T
   5   -290.5909366 -0.645196E-04  0.267E-03    0.51       2.7  T
   6   -290.5909371 -0.462754E-06  0.927E-04    0.51       7.6  T
   7   -290.5909374 -0.256124E-06  0.534E-04    0.51      13.3  T
   8   -290.5909375 -0.183399E-06  0.200E-04    0.51      35.4  T
   9   -290.5909376 -0.277266E-07  0.598E-05    0.51     118.5  T
  10   -290.5909376 -0.211475E-08  0.218E-05    0.51     324.6  T
     SCC iter.                  ...        0 min,  0.336 sec
     gradient                   ...        0 min,  0.045 sec
 * total energy  :  -287.2271794 Eh     change       -0.1326563E-01 Eh
   gradient norm :     0.0482287 Eh/α   predicted    -0.1343970E-01 (   1.31%)
   displ. norm   :     0.7806158 α      lambda       -0.1460939E-01
   maximum displ.:     0.1730762 α      in ANC's #98, #37, #36, ...

........................................................................
.............................. CYCLE   15 ..............................
........................................................................

 iter      E             dE          RMSdq      gap      omega  full diag
   1   -290.6041689 -0.290604E+03  0.299E-02    0.52       0.0  T
   2   -290.6043007 -0.131846E-03  0.185E-02    0.52       1.0  T
   3   -290.6043400 -0.392950E-04  0.132E-02    0.52       1.0  T
   4   -290.6043969 -0.568850E-04  0.597E-03    0.52       1.2  T
   5   -290.6043993 -0.232985E-05  0.396E-03    0.52       1.8  T
   6   -290.6044106 -0.113107E-04  0.929E-04    0.52       7.6  T
   7   -290.6044110 -0.395940E-06  0.259E-04    0.52      27.4  T
   8   -290.6044110 -0.706785E-08  0.175E-04    0.52      40.4  T
   9   -290.6044110 -0.227452E-07  0.635E-05    0.52     111.7  T
     SCC iter.                  ...        0 min,  0.284 sec
     gradient                   ...        0 min,  0.049 sec
 * total energy  :  -287.2393244 Eh     change       -0.1214503E-01 Eh
   gradient norm :     0.0418351 Eh/α   predicted    -0.1175589E-01 (  -3.20%)
   displ. norm   :     0.8260974 α      lambda       -0.1246184E-01
   maximum displ.:     0.2019236 α      in ANC's #37, #31, #98, ...

........................................................................
.............................. CYCLE   16 ..............................
........................................................................

 iter      E             dE          RMSdq      gap      omega  full diag
   1   -290.6118867 -0.290612E+03  0.291E-02    0.53       0.0  T
   2   -290.6120087 -0.121971E-03  0.145E-02    0.53       1.0  T
   3   -290.6120376 -0.289189E-04  0.791E-03    0.53       1.0  T
   4   -290.6120253  0.122661E-04  0.609E-03    0.53       1.2  T
   5   -290.6120338 -0.845718E-05  0.459E-03    0.53       1.5  T
   6   -290.6120484 -0.145758E-04  0.594E-04    0.53      11.9  T
   7   -290.6120484 -0.610682E-07  0.160E-04    0.53      44.3  T
   8   -290.6120484 -0.422165E-08  0.605E-05    0.53     117.3  T
     SCC iter.                  ...        0 min,  0.235 sec
     gradient                   ...        0 min,  0.047 sec
 * total energy  :  -287.2500219 Eh     change       -0.1069748E-01 Eh
   gradient norm :     0.0389457 Eh/α   predicted    -0.1048314E-01 (  -2.00%)
   displ. norm   :     0.8160289 α      lambda       -0.1172899E-01
   maximum displ.:     0.2166443 α      in ANC's #37, #36, #31, ...

........................................................................
.............................. CYCLE   17 ..............................
........................................................................

 iter      E             dE          RMSdq      gap      omega  full diag
   1   -290.6407792 -0.290641E+03  0.249E-02    0.54       0.0  T
   2   -290.6408726 -0.933722E-04  0.125E-02    0.53       1.0  T
   3   -290.6408854 -0.127701E-04  0.105E-02    0.53       1.0  T
   4   -290.6409139 -0.285446E-04  0.432E-03    0.53       1.6  T
   5   -290.6409100  0.385706E-05  0.347E-03    0.53       2.0  T
   6   -290.6409186 -0.853186E-05  0.102E-03    0.53       7.0  T
   7   -290.6409192 -0.605830E-06  0.552E-04    0.53      12.8  T
   8   -290.6409194 -0.254341E-06  0.111E-04    0.53      63.9  T
   9   -290.6409194 -0.590074E-08  0.397E-05    0.53     178.4  T
     SCC iter.                  ...        0 min,  0.269 sec
     gradient                   ...        0 min,  0.049 sec
 * total energy  :  -287.2597977 Eh     change       -0.9775818E-02 Eh
   gradient norm :     0.0368502 Eh/α   predicted    -0.9769691E-02 (  -0.06%)
   displ. norm   :     0.8283924 α      lambda       -0.1052478E-01
   maximum displ.:     0.2059558 α      in ANC's #98, #37, #36, ...

........................................................................
.............................. CYCLE   18 ..............................
........................................................................

 iter      E             dE          RMSdq      gap      omega  full diag
   1   -290.6409908 -0.290641E+03  0.250E-02    0.54       0.0  T
   2   -290.6410903 -0.994961E-04  0.144E-02    0.54       1.0  T
   3   -290.6411081 -0.177963E-04  0.861E-03    0.54       1.0  T
   4   -290.6410845  0.235974E-04  0.837E-03    0.54       1.0  T
   5   -290.6411287 -0.441971E-04  0.232E-03    0.54       3.1  T
   6   -290.6411303 -0.162203E-05  0.105E-03    0.54       6.7  T
   7   -290.6411311 -0.801464E-06  0.701E-04    0.54      10.1  T
   8   -290.6411315 -0.338166E-06  0.116E-04    0.54      60.9  T
   9   -290.6411315 -0.307864E-08  0.378E-05    0.54     187.7  T
     SCC iter.                  ...        0 min,  0.300 sec
     gradient                   ...        0 min,  0.039 sec
 * total energy  :  -287.2687016 Eh     change       -0.8903942E-02 Eh
   gradient norm :     0.0337612 Eh/α   predicted    -0.8873627E-02 (  -0.34%)
   displ. norm   :     0.8062122 α      lambda       -0.9540225E-02
   maximum displ.:     0.2291161 α      in ANC's #37, #36, #31, ...

........................................................................
.............................. CYCLE   19 ..............................
........................................................................

 iter      E             dE          RMSdq      gap      omega  full diag
   1   -290.6607404 -0.290661E+03  0.205E-02    0.54       0.0  T
   2   -290.6608153 -0.749575E-04  0.106E-02    0.54       1.0  T
   3   -290.6608318 -0.164446E-04  0.649E-03    0.54       1.1  T
   4   -290.6608320 -0.190747E-06  0.406E-03    0.54       1.7  T
   5   -290.6608314  0.548122E-06  0.301E-03    0.54       2.4  T
   6   -290.6608383 -0.692226E-05  0.614E-04    0.54      11.5  T
   7   -290.6608386 -0.256235E-06  0.225E-04    0.54      31.5  T
   8   -290.6608386 -0.151086E-07  0.165E-04    0.54      43.0  T
   9   -290.6608386 -0.227336E-07  0.357E-05    0.54     198.3  T
     SCC iter.                  ...        0 min,  0.269 sec
     gradient                   ...        0 min,  0.035 sec
 * total energy  :  -287.2767844 Eh     change       -0.8082757E-02 Eh
   gradient norm :     0.0349498 Eh/α   predicted    -0.7870590E-02 (  -2.62%)
   displ. norm   :     0.8145975 α      lambda       -0.9226032E-02
   maximum displ.:     0.2131784 α      in ANC's #37, #98, #36, ...

........................................................................
.............................. CYCLE   20 ..............................
........................................................................

 iter      E             dE          RMSdq      gap      omega  full diag
   1   -290.6714917 -0.290671E+03  0.211E-02    0.54       0.0  T
   2   -290.6715663 -0.745773E-04  0.117E-02    0.54       1.0  T
   3   -290.6715749 -0.860791E-05  0.701E-03    0.54       1.0  T
   4   -290.6715631  0.117808E-04  0.640E-03    0.54       1.1  T
   5   -290.6715852 -0.221188E-04  0.212E-03    0.54       3.3  T
   6   -290.6715878 -0.255592E-05  0.498E-04    0.54      14.2  T
   7   -290.6715878 -0.315864E-07  0.364E-04    0.54      19.5  T
   8   -290.6715879 -0.100576E-06  0.107E-04    0.54      66.6  T
   9   -290.6715879 -0.690972E-08  0.323E-05    0.54     219.2  T
     SCC iter.                  ...        0 min,  0.271 sec
     gradient                   ...        0 min,  0.044 sec
 * total energy  :  -287.2840783 Eh     change       -0.7293958E-02 Eh
   gradient norm :     0.0340266 Eh/α   predicted    -0.7674048E-02 (   5.21%)
   displ. norm   :     0.7886100 α      lambda       -0.8114204E-02
   maximum displ.:     0.1936830 α      in ANC's #37, #46, #36, ...
 * RMSD in coord.:     0.8482633 α      energy gain  -0.1294330E+01 Eh

generating ANC from exact Hessian ...
Using Lindh-Hessian (1995)
 Shifting diagonal of input Hessian by   1.321890676670220E-002
 Lowest  eigenvalues of input Hessian
    0.010000    0.010844    0.012932    0.013130    0.013164    0.000000
    0.013172    0.000000    0.013192    0.000000    0.000000    0.000000
    0.000000    0.013256    0.013273    0.013291    0.013324    0.013362
 Highest eigenvalues
    2.032917    2.091910    2.176610    2.189558    2.350376    2.354069
 

........................................................................
.............................. CYCLE   21 ..............................
........................................................................

 iter      E             dE          RMSdq      gap      omega  full diag
   1   -290.6747625 -0.290675E+03  0.194E-02    0.54       0.0  T
   2   -290.6748136 -0.511100E-04  0.981E-03    0.54       1.0  T
   3   -290.6748194 -0.577497E-05  0.583E-03    0.54       1.2  T
   4   -290.6748014  0.179226E-04  0.555E-03    0.54       1.3  T
   5   -290.6748249 -0.234113E-04  0.159E-03    0.54       4.5  T
   6   -290.6748260 -0.114487E-05  0.609E-04    0.54      11.6  T
   7   -290.6748261 -0.923276E-07  0.328E-04    0.54      21.6  T
   8   -290.6748262 -0.717270E-07  0.979E-05    0.54      72.4  T
   9   -290.6748262 -0.658099E-08  0.285E-05    0.54     249.0  T
     SCC iter.                  ...        0 min,  0.288 sec
     gradient                   ...        0 min,  0.034 sec
 * total energy  :  -287.2906264 Eh     change       -0.6548052E-02 Eh
   gradient norm :     0.0313240 Eh/α   predicted     0.0000000E+00 (-100.00%)
   displ. norm   :     0.3835532 α      lambda       -0.4989273E-02
   maximum displ.:     0.0919571 α      in ANC's #32, #31, #26, ...

........................................................................
.............................. CYCLE   22 ..............................
........................................................................

 iter      E             dE          RMSdq      gap      omega  full diag
   1   -290.6848515 -0.290685E+03  0.107E-02    0.55       0.0  T
   2   -290.6848664 -0.149474E-04  0.562E-03    0.55       1.3  T
   3   -290.6848641  0.229211E-05  0.456E-03    0.55       1.6  T
   4   -290.6848696 -0.552186E-05  0.262E-03    0.55       2.7  T
   5   -290.6848731 -0.347309E-05  0.884E-04    0.55       8.0  T
   6   -290.6848733 -0.203528E-06  0.418E-04    0.55      17.0  T
   7   -290.6848735 -0.125851E-06  0.226E-04    0.55      31.4  T
   8   -290.6848735 -0.373254E-07  0.399E-05    0.55     177.6  T
   9   -290.6848735 -0.638863E-09  0.148E-05    0.55     478.5  T
     SCC iter.                  ...        0 min,  0.283 sec
     gradient                   ...        0 min,  0.035 sec
 * total energy  :  -287.2948537 Eh     change       -0.4227360E-02 Eh
   gradient norm :     0.0171185 Eh/α   predicted    -0.2861663E-02 ( -32.31%)
   displ. norm   :     0.7295368 α      lambda       -0.6870313E-02
   maximum displ.:     0.1774164 α      in ANC's #32, #31, #26, ...

........................................................................
.............................. CYCLE   23 ..............................
........................................................................

 iter      E             dE          RMSdq      gap      omega  full diag
   1   -290.6918553 -0.290692E+03  0.174E-02    0.56       0.0  T
   2   -290.6918805 -0.251408E-04  0.101E-02    0.56       1.0  T
   3   -290.6918900 -0.959330E-05  0.790E-03    0.56       1.0  T
   4   -290.6919263 -0.362960E-04  0.413E-03    0.56       1.7  T
   5   -290.6919326 -0.621128E-05  0.151E-03    0.56       4.7  T
   6   -290.6919325  0.907983E-07  0.112E-03    0.56       6.3  T
   7   -290.6919331 -0.662094E-06  0.346E-04    0.56      20.5  T
   8   -290.6919332 -0.108946E-06  0.801E-05    0.56      88.5  T
   9   -290.6919332 -0.383727E-08  0.273E-05    0.56     259.9  T
     SCC iter.                  ...        0 min,  0.310 sec
     gradient                   ...        0 min,  0.035 sec
 * total energy  :  -287.3005764 Eh     change       -0.5722613E-02 Eh
   gradient norm :     0.0175731 Eh/α   predicted    -0.5265224E-02 (  -7.99%)
   displ. norm   :     0.7875653 α      lambda       -0.5896476E-02
   maximum displ.:     0.1956337 α      in ANC's #32, #31, #11, ...

........................................................................
.............................. CYCLE   24 ..............................
........................................................................

 iter      E             dE          RMSdq      gap      omega  full diag
   1   -290.6904661 -0.290690E+03  0.197E-02    0.58       0.0  T
   2   -290.6904831 -0.170123E-04  0.111E-02    0.57       1.0  T
   3   -290.6904742  0.885000E-05  0.107E-02    0.58       1.0  T
   4   -290.6905299 -0.556427E-04  0.379E-03    0.57       1.9  T
   5   -290.6905316 -0.178586E-05  0.181E-03    0.58       3.9  T
   6   -290.6905323 -0.679191E-06  0.133E-03    0.57       5.3  T
   7   -290.6905338 -0.151415E-05  0.274E-04    0.57      25.9  T
   8   -290.6905339 -0.450728E-07  0.728E-05    0.57      97.4  T
   9   -290.6905339 -0.156126E-08  0.271E-05    0.57     261.8  T
     SCC iter.                  ...        0 min,  0.295 sec
     gradient                   ...        0 min,  0.034 sec
 * total energy  :  -287.3052801 Eh     change       -0.4703726E-02 Eh
   gradient norm :     0.0285963 Eh/α   predicted    -0.4776914E-02 (   1.56%)
   displ. norm   :     0.7471136 α      lambda       -0.5224020E-02
   maximum displ.:     0.1938398 α      in ANC's #32, #31, #11, ...

........................................................................
.............................. CYCLE   25 ..............................
........................................................................

 iter      E             dE          RMSdq      gap      omega  full diag
   1   -290.6910549 -0.290691E+03  0.164E-02    0.59       0.0  T
   2   -290.6910755 -0.205652E-04  0.897E-03    0.59       1.0  T
   3   -290.6910763 -0.815651E-06  0.743E-03    0.59       1.0  T
   4   -290.6911073 -0.309355E-04  0.417E-03    0.59       1.7  T
   5   -290.6911138 -0.657475E-05  0.143E-03    0.59       4.9  T
   6   -290.6911139 -0.520452E-07  0.837E-04    0.59       8.5  T
   7   -290.6911142 -0.337550E-06  0.345E-04    0.59      20.5  T
   8   -290.6911143 -0.102983E-06  0.749E-05    0.59      94.7  T
   9   -290.6911143 -0.347802E-08  0.250E-05    0.59     283.0  T
     SCC iter.                  ...        0 min,  0.280 sec
     gradient                   ...        0 min,  0.035 sec
 * total energy  :  -287.3092130 Eh     change       -0.3932881E-02 Eh
   gradient norm :     0.0292122 Eh/α   predicted    -0.4069991E-02 (   3.49%)
   displ. norm   :     0.6603352 α      lambda       -0.4483860E-02
   maximum displ.:     0.1873542 α      in ANC's #32, #31, #11, ...

........................................................................
.............................. CYCLE   26 ..............................
........................................................................

 iter      E             dE          RMSdq      gap      omega  full diag
   1   -290.6996371 -0.290700E+03  0.109E-02    0.60       0.0  T
   2   -290.6996445 -0.744263E-05  0.609E-03    0.60       1.2  T
   3   -290.6996443  0.257781E-06  0.465E-03    0.60       1.5  T
   4   -290.6996501 -0.580954E-05  0.272E-03    0.60       2.6  T
   5   -290.6996542 -0.415621E-05  0.775E-04    0.60       9.2  T
   6   -290.6996545 -0.285943E-06  0.271E-04    0.60      26.2  T
   7   -290.6996545 -0.571214E-08  0.178E-04    0.60      39.8  T
   8   -290.6996546 -0.175614E-07  0.679E-05    0.60     104.4  T
     SCC iter.                  ...        0 min,  0.266 sec
     gradient                   ...        0 min,  0.035 sec
 * total energy  :  -287.3128653 Eh     change       -0.3652313E-02 Eh
   gradient norm :     0.0193388 Eh/α   predicted    -0.3219510E-02 ( -11.85%)
   displ. norm   :     0.7232698 α      lambda       -0.3942532E-02
   maximum displ.:     0.2247965 α      in ANC's #32, #11, #14, ...

........................................................................
.............................. CYCLE   27 ..............................
........................................................................

 iter      E             dE          RMSdq      gap      omega  full diag
   1   -290.7081204 -0.290708E+03  0.104E-02    0.60       0.0  T
   2   -290.7081283 -0.790706E-05  0.604E-03    0.60       1.2  T
   3   -290.7081258  0.247715E-05  0.475E-03    0.60       1.5  T
   4   -290.7081332 -0.741318E-05  0.310E-03    0.60       2.3  T
   5   -290.7081382 -0.496998E-05  0.745E-04    0.60       9.5  T
   6   -290.7081382  0.122520E-07  0.503E-04    0.60      14.1  T
   7   -290.7081384 -0.183207E-06  0.216E-04    0.60      32.8  T
   8   -290.7081384 -0.305342E-07  0.410E-05    0.60     172.8  T
   9   -290.7081384 -0.352145E-09  0.145E-05    0.60     487.2  T
     SCC iter.                  ...        0 min,  0.289 sec
     gradient                   ...        0 min,  0.035 sec
 * total energy  :  -287.3161545 Eh     change       -0.3289194E-02 Eh
   gradient norm :     0.0132321 Eh/α   predicted    -0.3002532E-02 (  -8.72%)
   displ. norm   :     0.7888182 α      lambda       -0.3478272E-02
   maximum displ.:     0.2497168 α      in ANC's #32, #15, #11, ...

........................................................................
.............................. CYCLE   28 ..............................
........................................................................

 iter      E             dE          RMSdq      gap      omega  full diag
   1   -290.7106099 -0.290711E+03  0.934E-03    0.61       0.0  T
   2   -290.7106067  0.319163E-05  0.634E-03    0.61       1.1  T
   3   -290.7106101 -0.335304E-05  0.552E-03    0.61       1.3  T
   4   -290.7106297 -0.196643E-04  0.187E-03    0.61       3.8  T
   5   -290.7106301 -0.358519E-06  0.658E-04    0.61      10.8  T
   6   -290.7106301 -0.147765E-07  0.484E-04    0.61      14.7  T
   7   -290.7106303 -0.182044E-06  0.192E-04    0.61      37.0  T
   8   -290.7106303 -0.203911E-07  0.395E-05    0.61     179.4  T
     SCC iter.                  ...        0 min,  0.252 sec
     gradient                   ...        0 min,  0.035 sec
 * total energy  :  -287.3191752 Eh     change       -0.3020760E-02 Eh
   gradient norm :     0.0155296 Eh/α   predicted    -0.2821300E-02 (  -6.60%)
   displ. norm   :     0.7982525 α      lambda       -0.3350444E-02
   maximum displ.:     0.2676293 α      in ANC's #32, #15, #14, ...

........................................................................
.............................. CYCLE   29 ..............................
........................................................................

 iter      E             dE          RMSdq      gap      omega  full diag
   1   -290.7184648 -0.290718E+03  0.938E-03    0.61       0.0  T
   2   -290.7184697 -0.483181E-05  0.502E-03    0.61       1.4  T
   3   -290.7184628  0.689110E-05  0.468E-03    0.61       1.5  T
   4   -290.7184743 -0.115228E-04  0.217E-03    0.61       3.3  T
   5   -290.7184763 -0.204506E-05  0.529E-04    0.61      13.4  T
   6   -290.7184764 -0.804943E-07  0.174E-04    0.61      40.7  T
   7   -290.7184764 -0.124936E-07  0.555E-05    0.61     127.8  T
     SCC iter.                  ...        0 min,  0.223 sec
     gradient                   ...        0 min,  0.035 sec
 * total energy  :  -287.3220645 Eh     change       -0.2889226E-02 Eh
   gradient norm :     0.0190074 Eh/α   predicted    -0.2742687E-02 (  -5.07%)
   displ. norm   :     0.8311714 α      lambda       -0.3236852E-02
   maximum displ.:     0.2726000 α      in ANC's #32, #15, #14, ...

........................................................................
.............................. CYCLE   30 ..............................
........................................................................

 iter      E             dE          RMSdq      gap      omega  full diag
   1   -290.7130372 -0.290713E+03  0.946E-03    0.61       0.0  T
   2   -290.7130400 -0.282709E-05  0.561E-03    0.61       1.3  T
   3   -290.7130323  0.770059E-05  0.571E-03    0.61       1.2  T
   4   -290.7130515 -0.192103E-04  0.207E-03    0.61       3.4  T
   5   -290.7130528 -0.126276E-05  0.660E-04    0.61      10.7  T
   6   -290.7130529 -0.110716E-06  0.184E-04    0.61      38.6  T
   7   -290.7130529 -0.780955E-08  0.680E-05    0.61     104.3  T
     SCC iter.                  ...        0 min,  0.231 sec
     gradient                   ...        0 min,  0.033 sec
 * total energy  :  -287.3248737 Eh     change       -0.2809263E-02 Eh
   gradient norm :     0.0155770 Eh/α   predicted    -0.2736510E-02 (  -2.59%)
   displ. norm   :     0.8056572 α      lambda       -0.3322178E-02
   maximum displ.:     0.2569062 α      in ANC's #32, #15, #14, ...

........................................................................
.............................. CYCLE   31 ..............................
........................................................................

 iter      E             dE          RMSdq      gap      omega  full diag
   1   -290.7260296 -0.290726E+03  0.123E-02    0.61       0.0  T
   2   -290.7260236  0.599561E-05  0.865E-03    0.62       1.0  T
   3   -290.7260366 -0.130230E-04  0.721E-03    0.61       1.0  T
   4   -290.7260691 -0.324739E-04  0.236E-03    0.62       3.0  T
   5   -290.7260700 -0.924026E-06  0.900E-04    0.61       7.9  T
   6   -290.7260702 -0.160134E-06  0.235E-04    0.61      30.2  T
   7   -290.7260702 -0.589631E-08  0.107E-04    0.61      66.1  T
   8   -290.7260702 -0.299497E-08  0.686E-05    0.61     103.3  T
     SCC iter.                  ...        0 min,  0.251 sec
     gradient                   ...        0 min,  0.056 sec
 * total energy  :  -287.3276571 Eh     change       -0.2783343E-02 Eh
   gradient norm :     0.0150153 Eh/α   predicted    -0.2739281E-02 (  -1.58%)
   displ. norm   :     0.8443726 α      lambda       -0.3105524E-02
   maximum displ.:     0.2656030 α      in ANC's #32, #13, #11, ...

........................................................................
.............................. CYCLE   32 ..............................
........................................................................

 iter      E             dE          RMSdq      gap      omega  full diag
   1   -290.7189845 -0.290719E+03  0.994E-03    0.62       0.0  T
   2   -290.7189970 -0.125178E-04  0.477E-03    0.62       1.5  T
   3   -290.7189987 -0.174180E-05  0.263E-03    0.62       2.7  T
   4   -290.7189992 -0.451480E-06  0.115E-03    0.62       6.2  T
   5   -290.7189990  0.210491E-06  0.851E-04    0.62       8.3  T
   6   -290.7189995 -0.480358E-06  0.265E-04    0.62      26.8  T
   7   -290.7189995 -0.533074E-07  0.835E-05    0.62      84.9  T
   8   -290.7189995 -0.379555E-08  0.397E-05    0.62     178.4  T
     SCC iter.                  ...        0 min,  0.254 sec
     gradient                   ...        0 min,  0.033 sec
 * total energy  :  -287.3302950 Eh     change       -0.2637949E-02 Eh
   gradient norm :     0.0157904 Eh/α   predicted    -0.2659829E-02 (   0.83%)
   displ. norm   :     0.8017607 α      lambda       -0.2979328E-02
   maximum displ.:     0.2531590 α      in ANC's #13, #32, #11, ...

........................................................................
.............................. CYCLE   33 ..............................
........................................................................

 iter      E             dE          RMSdq      gap      omega  full diag
   1   -290.7245169 -0.290725E+03  0.891E-03    0.62       0.0  T
   2   -290.7245293 -0.123441E-04  0.480E-03    0.62       1.5  T
   3   -290.7245306 -0.134755E-05  0.298E-03    0.62       2.4  T
   4   -290.7245297  0.890406E-06  0.197E-03    0.62       3.6  T
   5   -290.7245310 -0.128951E-05  0.124E-03    0.62       5.7  T
   6   -290.7245322 -0.112094E-05  0.262E-04    0.62      27.1  T
   7   -290.7245322 -0.176833E-07  0.130E-04    0.62      54.6  T
   8   -290.7245322 -0.534533E-08  0.823E-05    0.62      86.1  T
     SCC iter.                  ...        0 min,  0.231 sec
     gradient                   ...        0 min,  0.049 sec
 * total energy  :  -287.3328261 Eh     change       -0.2531049E-02 Eh
   gradient norm :     0.0156750 Eh/α   predicted    -0.2447254E-02 (  -3.31%)
   displ. norm   :     0.8244255 α      lambda       -0.2786243E-02
   maximum displ.:     0.2731493 α      in ANC's #13, #11, #32, ...

........................................................................
.............................. CYCLE   34 ..............................
........................................................................

 iter      E             dE          RMSdq      gap      omega  full diag
   1   -290.7304262 -0.290730E+03  0.849E-03    0.62       0.0  T
   2   -290.7304286 -0.245262E-05  0.504E-03    0.62       1.4  T
   3   -290.7304270  0.165265E-05  0.445E-03    0.62       1.6  T
   4   -290.7304400 -0.130350E-04  0.197E-03    0.62       3.6  T
   5   -290.7304413 -0.133426E-05  0.753E-04    0.62       9.4  T
   6   -290.7304413 -0.183047E-07  0.471E-04    0.62      15.1  T
   7   -290.7304415 -0.119246E-06  0.188E-04    0.62      37.8  T
   8   -290.7304415 -0.278743E-07  0.449E-05    0.62     157.9  T
     SCC iter.                  ...        0 min,  0.245 sec
     gradient                   ...        0 min,  0.032 sec
 * total energy  :  -287.3352644 Eh     change       -0.2438357E-02 Eh
   gradient norm :     0.0145070 Eh/α   predicted    -0.2339997E-02 (  -4.03%)
   displ. norm   :     0.8310998 α      lambda       -0.2740445E-02
   maximum displ.:     0.2868194 α      in ANC's #13, #11, #32, ...

........................................................................
.............................. CYCLE   35 ..............................
........................................................................

 iter      E             dE          RMSdq      gap      omega  full diag
   1   -290.7329242 -0.290733E+03  0.901E-03    0.62       0.0  T
   2   -290.7329305 -0.622819E-05  0.532E-03    0.63       1.3  T
   3   -290.7329287  0.174613E-05  0.409E-03    0.62       1.7  T
   4   -290.7329340 -0.527047E-05  0.280E-03    0.63       2.5  T
   5   -290.7329385 -0.453333E-05  0.870E-04    0.63       8.1  T
   6   -290.7329387 -0.135640E-06  0.364E-04    0.63      19.5  T
   7   -290.7329387 -0.247819E-07  0.250E-04    0.63      28.4  T
   8   -290.7329387 -0.535528E-07  0.477E-05    0.63     148.7  T
   9   -290.7329387 -0.130177E-08  0.151E-05    0.63     468.7  T
     SCC iter.                  ...        0 min,  0.253 sec
     gradient                   ...        0 min,  0.034 sec
 * total energy  :  -287.3375762 Eh     change       -0.2311738E-02 Eh
   gradient norm :     0.0142112 Eh/α   predicted    -0.2316674E-02 (   0.21%)
   displ. norm   :     0.8109996 α      lambda       -0.2733676E-02
   maximum displ.:     0.2852442 α      in ANC's #13, #11, #14, ...

........................................................................
.............................. CYCLE   36 ..............................
........................................................................

 iter      E             dE          RMSdq      gap      omega  full diag
   1   -290.7437121 -0.290744E+03  0.107E-02    0.63       0.0  T
   2   -290.7437211 -0.900206E-05  0.569E-03    0.63       1.2  T
   3   -290.7437206  0.572050E-06  0.433E-03    0.63       1.6  T
   4   -290.7437209 -0.321403E-06  0.242E-03    0.63       2.9  T
   5   -290.7437237 -0.281899E-05  0.118E-03    0.63       6.0  T
   6   -290.7437249 -0.116546E-05  0.277E-04    0.63      25.6  T
   7   -290.7437249 -0.193031E-07  0.154E-04    0.63      46.0  T
   8   -290.7437249 -0.149153E-07  0.713E-05    0.63      99.4  T
     SCC iter.                  ...        0 min,  0.242 sec
     gradient                   ...        0 min,  0.045 sec
 * total energy  :  -287.3397948 Eh     change       -0.2218596E-02 Eh
   gradient norm :     0.0178777 Eh/α   predicted    -0.2265837E-02 (   2.13%)
   displ. norm   :     0.8284649 α      lambda       -0.2575930E-02
   maximum displ.:     0.2846849 α      in ANC's #13, #11, #14, ...

........................................................................
.............................. CYCLE   37 ..............................
........................................................................

 iter      E             dE          RMSdq      gap      omega  full diag
   1   -290.7341922 -0.290734E+03  0.935E-03    0.63       0.0  T
   2   -290.7342027 -0.105202E-04  0.446E-03    0.63       1.6  T
   3   -290.7342013  0.146117E-05  0.329E-03    0.63       2.2  T
   4   -290.7342001  0.113748E-05  0.271E-03    0.63       2.6  T
   5   -290.7342050 -0.488809E-05  0.572E-04    0.63      12.4  T
   6   -290.7342051 -0.644284E-07  0.290E-04    0.63      24.4  T
   7   -290.7342051 -0.389284E-07  0.195E-04    0.63      36.3  T
   8   -290.7342051 -0.301392E-07  0.341E-05    0.63     208.1  T
     SCC iter.                  ...        0 min,  0.235 sec
     gradient                   ...        0 min,  0.060 sec
 * total energy  :  -287.3419923 Eh     change       -0.2197586E-02 Eh
   gradient norm :     0.0188499 Eh/α   predicted    -0.2171974E-02 (  -1.17%)
   displ. norm   :     0.7610102 α      lambda       -0.2818840E-02
   maximum displ.:     0.2387961 α      in ANC's #13, #11, #8, ...

........................................................................
.............................. CYCLE   38 ..............................
........................................................................

 iter      E             dE          RMSdq      gap      omega  full diag
   1   -290.7467156 -0.290747E+03  0.114E-02    0.64       0.0  T
   2   -290.7467217 -0.603617E-05  0.605E-03    0.64       1.2  T
   3   -290.7467113  0.103748E-04  0.439E-03    0.63       1.6  T
   4   -290.7467174 -0.611181E-05  0.332E-03    0.64       2.1  T
   5   -290.7467246 -0.714306E-05  0.672E-04    0.64      10.5  T
   6   -290.7467246 -0.353467E-07  0.308E-04    0.64      23.0  T
   7   -290.7467246 -0.314413E-07  0.218E-04    0.64      32.6  T
   8   -290.7467247 -0.391485E-07  0.489E-05    0.64     145.0  T
   9   -290.7467247 -0.130177E-08  0.119E-05    0.64     598.1  T
     SCC iter.                  ...        0 min,  0.259 sec
     gradient                   ...        0 min,  0.036 sec
 * total energy  :  -287.3441119 Eh     change       -0.2119607E-02 Eh
   gradient norm :     0.0191017 Eh/α   predicted    -0.2225671E-02 (   5.00%)
   displ. norm   :     0.7818512 α      lambda       -0.2979458E-02
   maximum displ.:     0.2488807 α      in ANC's #13, #11, #14, ...

........................................................................
.............................. CYCLE   39 ..............................
........................................................................

 iter      E             dE          RMSdq      gap      omega  full diag
   1   -290.7351043 -0.290735E+03  0.134E-02    0.63       0.0  T
   2   -290.7351060 -0.168710E-05  0.766E-03    0.64       1.0  T
   3   -290.7350553  0.506409E-04  0.917E-03    0.63       1.0  T
   4   -290.7351160 -0.606663E-04  0.223E-03    0.64       3.2  T
   5   -290.7351172 -0.121684E-05  0.671E-04    0.64      10.6  T
   6   -290.7351173 -0.423899E-07  0.325E-04    0.64      21.8  T
   7   -290.7351173 -0.247204E-07  0.244E-04    0.64      29.1  T
   8   -290.7351173 -0.503647E-07  0.517E-05    0.64     137.0  T
   9   -290.7351173 -0.109293E-08  0.135E-05    0.64     523.5  T
     SCC iter.                  ...        0 min,  0.266 sec
     gradient                   ...        0 min,  0.035 sec
 * total energy  :  -287.3462745 Eh     change       -0.2162593E-02 Eh
   gradient norm :     0.0217427 Eh/α   predicted    -0.2400390E-02 (  11.00%)
   displ. norm   :     0.6997261 α      lambda       -0.2837894E-02
   maximum displ.:     0.2095436 α      in ANC's #13, #11, #14, ...

........................................................................
.............................. CYCLE   40 ..............................
........................................................................

 iter      E             dE          RMSdq      gap      omega  full diag
   1   -290.7421419 -0.290742E+03  0.131E-02    0.64       0.0  T
   2   -290.7421570 -0.151495E-04  0.670E-03    0.64       1.1  T
   3   -290.7421518  0.521858E-05  0.412E-03    0.64       1.7  T
   4   -290.7421461  0.568339E-05  0.416E-03    0.64       1.7  T
   5   -290.7421601 -0.140248E-04  0.110E-03    0.64       6.5  T
   6   -290.7421603 -0.219021E-06  0.277E-04    0.64      25.6  T
   7   -290.7421603  0.544316E-08  0.194E-04    0.64      36.6  T
   8   -290.7421604 -0.276892E-07  0.795E-05    0.64      89.2  T
     SCC iter.                  ...        0 min,  0.256 sec
     gradient                   ...        0 min,  0.057 sec
 * total energy  :  -287.3482411 Eh     change       -0.1966608E-02 Eh
   gradient norm :     0.0249961 Eh/α   predicted    -0.2113687E-02 (   7.48%)
   displ. norm   :     0.6845997 α      lambda       -0.2892239E-02
   maximum displ.:     0.2198909 α      in ANC's #14, #11, #13, ...

........................................................................
.............................. CYCLE   41 ..............................
........................................................................

 iter      E             dE          RMSdq      gap      omega  full diag
   1   -290.7435779 -0.290744E+03  0.120E-02    0.64       0.0  T
   2   -290.7435873 -0.940148E-05  0.627E-03    0.64       1.1  T
   3   -290.7435831  0.423991E-05  0.395E-03    0.64       1.8  T
   4   -290.7435813  0.174968E-05  0.319E-03    0.64       2.2  T
   5   -290.7435893 -0.795549E-05  0.652E-04    0.64      10.9  T
   6   -290.7435895 -0.181747E-06  0.220E-04    0.64      32.3  T
   7   -290.7435895 -0.628955E-08  0.116E-04    0.64      61.1  T
   8   -290.7435895 -0.473199E-08  0.619E-05    0.64     114.6  T
     SCC iter.                  ...        0 min,  0.240 sec
     gradient                   ...        0 min,  0.036 sec
 * total energy  :  -287.3503777 Eh     change       -0.2136512E-02 Eh
   gradient norm :     0.0179385 Eh/α   predicted    -0.2123888E-02 (  -0.59%)
   displ. norm   :     0.7173042 α      lambda       -0.2780541E-02
   maximum displ.:     0.2168930 α      in ANC's #14, #8, #11, ...

........................................................................
.............................. CYCLE   42 ..............................
........................................................................

 iter      E             dE          RMSdq      gap      omega  full diag
   1   -290.7554230 -0.290755E+03  0.127E-02    0.64       0.0  T
   2   -290.7554349 -0.118357E-04  0.672E-03    0.64       1.1  T
   3   -290.7554314  0.349655E-05  0.444E-03    0.64       1.6  T
   4   -290.7554296  0.175739E-05  0.351E-03    0.64       2.0  T
   5   -290.7554384 -0.877480E-05  0.857E-04    0.64       8.3  T
   6   -290.7554387 -0.291714E-06  0.243E-04    0.64      29.2  T
   7   -290.7554387  0.140842E-07  0.242E-04    0.64      29.3  T
   8   -290.7554387 -0.488433E-07  0.403E-05    0.64     176.1  T
   9   -290.7554387 -0.564626E-09  0.103E-05    0.64     691.5  T
     SCC iter.                  ...        0 min,  0.291 sec
     gradient                   ...        0 min,  0.035 sec
 * total energy  :  -287.3522917 Eh     change       -0.1914058E-02 Eh
   gradient norm :     0.0196196 Eh/α   predicted    -0.2105605E-02 (  10.01%)
   displ. norm   :     0.7632991 α      lambda       -0.2755691E-02
   maximum displ.:     0.2323499 α      in ANC's #11, #14, #13, ...
 * RMSD in coord.:     1.0173056 α      energy gain  -0.6821338E-01 Eh

generating ANC from exact Hessian ...
Using Lindh-Hessian (1995)
 Shifting diagonal of input Hessian by   1.009123147573625E-002
 Lowest  eigenvalues of input Hessian
    0.010000    0.010042    0.010050    0.010056    0.010060    0.000000
    0.000000    0.000000    0.000000    0.000000    0.000000    0.010129
    0.010155    0.010164    0.010194    0.010234    0.010272    0.010315
 Highest eigenvalues
    2.024762    2.083510    2.164718    2.181812    2.343702    2.347889
 

........................................................................
.............................. CYCLE   43 ..............................
........................................................................

 iter      E             dE          RMSdq      gap      omega  full diag
   1   -290.7471200 -0.290747E+03  0.133E-02    0.65       0.0  T
   2   -290.7471264 -0.635711E-05  0.709E-03    0.65       1.0  T
   3   -290.7471155  0.109263E-04  0.506E-03    0.65       1.4  T
   4   -290.7471187 -0.324118E-05  0.369E-03    0.65       1.9  T
   5   -290.7471290 -0.102766E-04  0.651E-04    0.65      10.9  T
   6   -290.7471291 -0.805299E-07  0.332E-04    0.65      21.4  T
   7   -290.7471291 -0.460407E-07  0.192E-04    0.65      36.9  T
   8   -290.7471291 -0.286913E-07  0.333E-05    0.65     213.1  T
     SCC iter.                  ...        0 min,  0.254 sec
     gradient                   ...        0 min,  0.035 sec
 * total energy  :  -287.3542432 Eh     change       -0.1951522E-02 Eh
   gradient norm :     0.0186342 Eh/α   predicted     0.0000000E+00 (-100.00%)
   displ. norm   :     0.2240577 α      lambda       -0.1463419E-02
   maximum displ.:     0.0558642 α      in ANC's #13, #62, #69, ...

........................................................................
.............................. CYCLE   44 ..............................
........................................................................

 iter      E             dE          RMSdq      gap      omega  full diag
   1   -290.7556553 -0.290756E+03  0.755E-03    0.65       0.0  T
   2   -290.7556569 -0.165781E-05  0.405E-03    0.65       1.8  T
   3   -290.7556536  0.331717E-05  0.300E-03    0.65       2.4  T
   4   -290.7556558 -0.213969E-05  0.163E-03    0.65       4.3  T
   5   -290.7556576 -0.182296E-05  0.406E-04    0.65      17.5  T
   6   -290.7556577 -0.629128E-07  0.181E-04    0.65      39.2  T
   7   -290.7556577 -0.169911E-07  0.118E-04    0.65      60.0  T
     SCC iter.                  ...        0 min,  0.220 sec
     gradient                   ...        0 min,  0.045 sec
 * total energy  :  -287.3553583 Eh     change       -0.1115067E-02 Eh
   gradient norm :     0.0063387 Eh/α   predicted    -0.7684526E-03 ( -31.08%)
   displ. norm   :     0.4658716 α      lambda       -0.1584312E-02
   maximum displ.:     0.1239508 α      in ANC's #13, #69, #93, ...

........................................................................
.............................. CYCLE   45 ..............................
........................................................................

 iter      E             dE          RMSdq      gap      omega  full diag
   1   -290.7620989 -0.290762E+03  0.710E-03    0.65       0.0  T
   2   -290.7621005 -0.169028E-05  0.395E-03    0.65       1.8  T
   3   -290.7620972  0.329411E-05  0.349E-03    0.65       2.0  T
   4   -290.7621008 -0.358848E-05  0.167E-03    0.65       4.2  T
   5   -290.7621027 -0.182260E-05  0.494E-04    0.65      14.4  T
   6   -290.7621028 -0.132594E-06  0.177E-04    0.65      40.1  T
   7   -290.7621028 -0.469254E-08  0.147E-04    0.65      48.1  T
     SCC iter.                  ...        0 min,  0.227 sec
     gradient                   ...        0 min,  0.035 sec
 * total energy  :  -287.3566054 Eh     change       -0.1247093E-02 Eh
   gradient norm :     0.0099712 Eh/α   predicted    -0.9642014E-03 ( -22.68%)
   displ. norm   :     0.6899059 α      lambda       -0.1877552E-02
   maximum displ.:     0.2001372 α      in ANC's #69, #93, #13, ...

........................................................................
.............................. CYCLE   46 ..............................
........................................................................

 iter      E             dE          RMSdq      gap      omega  full diag
   1   -290.7601533 -0.290760E+03  0.755E-03    0.66       0.0  T
   2   -290.7601579 -0.456570E-05  0.386E-03    0.66       1.8  T
   3   -290.7601575  0.401263E-06  0.316E-03    0.66       2.2  T
   4   -290.7601586 -0.115829E-05  0.172E-03    0.66       4.1  T
   5   -290.7601605 -0.184635E-05  0.620E-04    0.66      11.4  T
   6   -290.7601607 -0.220973E-06  0.192E-04    0.66      36.9  T
   7   -290.7601607 -0.287173E-08  0.146E-04    0.66      48.5  T
     SCC iter.                  ...        0 min,  0.209 sec
     gradient                   ...        0 min,  0.045 sec
 * total energy  :  -287.3581113 Eh     change       -0.1505896E-02 Eh
   gradient norm :     0.0176724 Eh/α   predicted    -0.1385607E-02 (  -7.99%)
   displ. norm   :     0.7223330 α      lambda       -0.1988376E-02
   maximum displ.:     0.2128542 α      in ANC's #69, #93, #13, ...

........................................................................
.............................. CYCLE   47 ..............................
........................................................................

 iter      E             dE          RMSdq      gap      omega  full diag
   1   -290.7531516 -0.290753E+03  0.849E-03    0.66       0.0  T
   2   -290.7531522 -0.629833E-06  0.510E-03    0.66       1.4  T
   3   -290.7531487  0.357947E-05  0.446E-03    0.66       1.6  T
   4   -290.7531552 -0.656590E-05  0.200E-03    0.66       3.5  T
   5   -290.7531578 -0.260228E-05  0.615E-04    0.66      11.5  T
   6   -290.7531580 -0.117335E-06  0.350E-04    0.66      20.3  T
   7   -290.7531580 -0.671217E-07  0.185E-04    0.66      38.3  T
   8   -290.7531580 -0.276252E-07  0.303E-05    0.66     234.2  T
     SCC iter.                  ...        0 min,  0.224 sec
     gradient                   ...        0 min,  0.037 sec
 * total energy  :  -287.3596642 Eh     change       -0.1552873E-02 Eh
   gradient norm :     0.0207173 Eh/α   predicted    -0.1512921E-02 (  -2.57%)
   displ. norm   :     0.5705314 α      lambda       -0.2116622E-02
   maximum displ.:     0.1721471 α      in ANC's #13, #6, #1, ...

........................................................................
.............................. CYCLE   48 ..............................
........................................................................

 iter      E             dE          RMSdq      gap      omega  full diag
   1   -290.7548673 -0.290755E+03  0.101E-02    0.66       0.0  T
   2   -290.7548701 -0.279391E-05  0.536E-03    0.66       1.3  T
   3   -290.7548653  0.473380E-05  0.338E-03    0.66       2.1  T
   4   -290.7548663 -0.102883E-05  0.242E-03    0.66       2.9  T
   5   -290.7548712 -0.480943E-05  0.524E-04    0.66      13.5  T
   6   -290.7548712 -0.675528E-07  0.246E-04    0.66      28.8  T
   7   -290.7548712 -0.125909E-07  0.123E-04    0.66      57.6  T
   8   -290.7548712 -0.104155E-07  0.417E-05    0.66     169.9  T
     SCC iter.                  ...        0 min,  0.249 sec
     gradient                   ...        0 min,  0.049 sec
 * total energy  :  -287.3611462 Eh     change       -0.1482006E-02 Eh
   gradient norm :     0.0141570 Eh/α   predicted    -0.1402803E-02 (  -5.34%)
   displ. norm   :     0.6532215 α      lambda       -0.1540950E-02
   maximum displ.:     0.2021928 α      in ANC's #13, #6, #1, ...

........................................................................
.............................. CYCLE   49 ..............................
........................................................................

 iter      E             dE          RMSdq      gap      omega  full diag
   1   -290.7545701 -0.290755E+03  0.534E-03    0.67       0.0  T
   2   -290.7545707 -0.571161E-06  0.323E-03    0.66       2.2  T
   3   -290.7545690  0.176208E-05  0.281E-03    0.67       2.5  T
   4   -290.7545720 -0.303653E-05  0.145E-03    0.67       4.9  T
   5   -290.7545733 -0.126570E-05  0.354E-04    0.67      20.0  T
   6   -290.7545733 -0.405557E-07  0.127E-04    0.67      55.9  T
   7   -290.7545733 -0.496101E-08  0.357E-05    0.67     198.3  T
     SCC iter.                  ...        0 min,  0.210 sec
     gradient                   ...        0 min,  0.034 sec
 * total energy  :  -287.3624640 Eh     change       -0.1317811E-02 Eh
   gradient norm :     0.0143745 Eh/α   predicted    -0.1099270E-02 ( -16.58%)
   displ. norm   :     0.6752664 α      lambda       -0.1894283E-02
   maximum displ.:     0.2194252 α      in ANC's #6, #13, #1, ...

........................................................................
.............................. CYCLE   50 ..............................
........................................................................

 iter      E             dE          RMSdq      gap      omega  full diag
   1   -290.7686804 -0.290769E+03  0.993E-03    0.67       0.0  T
   2   -290.7686833 -0.296551E-05  0.543E-03    0.67       1.3  T
   3   -290.7686744  0.892995E-05  0.423E-03    0.67       1.7  T
   4   -290.7686804 -0.598087E-05  0.255E-03    0.67       2.8  T
   5   -290.7686851 -0.467776E-05  0.463E-04    0.67      15.3  T
   6   -290.7686851 -0.462392E-07  0.176E-04    0.67      40.4  T
   7   -290.7686851 -0.265067E-08  0.125E-04    0.67      56.6  T
     SCC iter.                  ...        0 min,  0.213 sec
     gradient                   ...        0 min,  0.035 sec
 * total energy  :  -287.3637950 Eh     change       -0.1331003E-02 Eh
   gradient norm :     0.0121733 Eh/α   predicted    -0.1379040E-02 (   3.61%)
   displ. norm   :     0.8156255 α      lambda       -0.1856349E-02
   maximum displ.:     0.2440484 α      in ANC's #6, #13, #1, ...

........................................................................
.............................. CYCLE   51 ..............................
........................................................................

 iter      E             dE          RMSdq      gap      omega  full diag
   1   -290.7593140 -0.290759E+03  0.997E-03    0.67       0.0  T
   2   -290.7593172 -0.329301E-05  0.507E-03    0.67       1.4  T
   3   -290.7593135  0.371463E-05  0.282E-03    0.67       2.5  T
   4   -290.7593138 -0.276251E-06  0.229E-03    0.67       3.1  T
   5   -290.7593179 -0.409020E-05  0.526E-04    0.67      13.5  T
   6   -290.7593180 -0.572712E-07  0.195E-04    0.67      36.4  T
   7   -290.7593180 -0.512182E-08  0.919E-05    0.67      77.1  T
     SCC iter.                  ...        0 min,  0.221 sec
     gradient                   ...        0 min,  0.036 sec
 * total energy  :  -287.3651626 Eh     change       -0.1367607E-02 Eh
   gradient norm :     0.0152447 Eh/α   predicted    -0.1545648E-02 (  13.02%)
   displ. norm   :     0.6715572 α      lambda       -0.1432194E-02
   maximum displ.:     0.2136426 α      in ANC's #6, #1, #13, ...

........................................................................
.............................. CYCLE   52 ..............................
........................................................................

 iter      E             dE          RMSdq      gap      omega  full diag
   1   -290.7577135 -0.290758E+03  0.643E-03    0.67       0.0  T
   2   -290.7577109  0.252563E-05  0.433E-03    0.67       1.6  T
   3   -290.7577090  0.195832E-05  0.395E-03    0.67       1.8  T
   4   -290.7577173 -0.832646E-05  0.132E-03    0.67       5.4  T
   5   -290.7577181 -0.786395E-06  0.391E-04    0.67      18.1  T
   6   -290.7577182 -0.544761E-07  0.140E-04    0.67      50.7  T
   7   -290.7577182 -0.215607E-09  0.916E-05    0.67      77.4  T
     SCC iter.                  ...        0 min,  0.213 sec
     gradient                   ...        0 min,  0.035 sec
 * total energy  :  -287.3663472 Eh     change       -0.1184571E-02 Eh
   gradient norm :     0.0144097 Eh/α   predicted    -0.1039048E-02 ( -12.28%)
   displ. norm   :     0.6794253 α      lambda       -0.1774234E-02
   maximum displ.:     0.2219832 α      in ANC's #1, #6, #13, ...

........................................................................
.............................. CYCLE   53 ..............................
........................................................................

 iter      E             dE          RMSdq      gap      omega  full diag
   1   -290.7706508 -0.290771E+03  0.111E-02    0.67       0.0  T
   2   -290.7706539 -0.314057E-05  0.575E-03    0.67       1.2  T
   3   -290.7706488  0.508796E-05  0.352E-03    0.67       2.0  T
   4   -290.7706512 -0.243034E-05  0.217E-03    0.67       3.3  T
   5   -290.7706547 -0.350042E-05  0.508E-04    0.67      14.0  T
   6   -290.7706548 -0.100768E-06  0.154E-04    0.67      46.0  T
   7   -290.7706549 -0.150893E-07  0.373E-05    0.67     190.0  T
     SCC iter.                  ...        0 min,  0.236 sec
     gradient                   ...        0 min,  0.049 sec
 * total energy  :  -287.3675184 Eh     change       -0.1171269E-02 Eh
   gradient norm :     0.0140569 Eh/α   predicted    -0.1296628E-02 (  10.70%)
   displ. norm   :     0.7546448 α      lambda       -0.1783381E-02
   maximum displ.:     0.2347085 α      in ANC's #1, #6, #13, ...

........................................................................
.............................. CYCLE   54 ..............................
........................................................................

 iter      E             dE          RMSdq      gap      omega  full diag
   1   -290.7712298 -0.290771E+03  0.122E-02    0.67       0.0  T
   2   -290.7712312 -0.132063E-05  0.648E-03    0.67       1.1  T
   3   -290.7712094  0.217943E-04  0.553E-03    0.67       1.3  T
   4   -290.7712311 -0.217815E-04  0.196E-03    0.67       3.6  T
   5   -290.7712335 -0.235200E-05  0.605E-04    0.67      11.7  T
   6   -290.7712335 -0.586050E-08  0.354E-04    0.67      20.0  T
   7   -290.7712336 -0.617228E-07  0.146E-04    0.67      48.5  T
   8   -290.7712336 -0.185125E-07  0.284E-05    0.67     249.7  T
     SCC iter.                  ...        0 min,  0.254 sec
     gradient                   ...        0 min,  0.036 sec
 * total energy  :  -287.3687017 Eh     change       -0.1183311E-02 Eh
   gradient norm :     0.0141101 Eh/α   predicted    -0.1399505E-02 (  18.27%)
   displ. norm   :     0.7793621 α      lambda       -0.1592668E-02
   maximum displ.:     0.2427841 α      in ANC's #1, #6, #13, ...

........................................................................
.............................. CYCLE   55 ..............................
........................................................................

 iter      E             dE          RMSdq      gap      omega  full diag
   1   -290.7585575 -0.290759E+03  0.109E-02    0.67       0.0  T
   2   -290.7585563  0.116073E-05  0.655E-03    0.67       1.1  T
   3   -290.7585379  0.183701E-04  0.685E-03    0.68       1.0  T
   4   -290.7585621 -0.241629E-04  0.231E-03    0.67       3.1  T
   5   -290.7585650 -0.289207E-05  0.638E-04    0.67      11.1  T
   6   -290.7585652 -0.173512E-06  0.189E-04    0.67      37.5  T
   7   -290.7585652 -0.102039E-07  0.951E-05    0.67      74.6  T
     SCC iter.                  ...        0 min,  0.218 sec
     gradient                   ...        0 min,  0.035 sec
 * total energy  :  -287.3697229 Eh     change       -0.1021173E-02 Eh
   gradient norm :     0.0163919 Eh/α   predicted    -0.1280035E-02 (  25.35%)
   displ. norm   :     0.5872666 α      lambda       -0.1386428E-02
   maximum displ.:     0.1948739 α      in ANC's #1, #6, #12, ...

........................................................................
.............................. CYCLE   56 ..............................
........................................................................

 iter      E             dE          RMSdq      gap      omega  full diag
   1   -290.7664595 -0.290766E+03  0.740E-03    0.67       0.0  T
   2   -290.7664601 -0.575385E-06  0.408E-03    0.67       1.7  T
   3   -290.7664531  0.692972E-05  0.397E-03    0.67       1.8  T
   4   -290.7664599 -0.679353E-05  0.160E-03    0.67       4.4  T
   5   -290.7664618 -0.183727E-05  0.406E-04    0.67      17.5  T
   6   -290.7664618 -0.738810E-07  0.143E-04    0.67      49.5  T
   7   -290.7664618  0.164022E-08  0.125E-04    0.67      56.6  T
     SCC iter.                  ...        0 min,  0.227 sec
     gradient                   ...        0 min,  0.042 sec
 * total energy  :  -287.3708114 Eh     change       -0.1088433E-02 Eh
   gradient norm :     0.0099474 Eh/α   predicted    -0.9322914E-03 ( -14.35%)
   displ. norm   :     0.7888995 α      lambda       -0.1399972E-02
   maximum displ.:     0.2651008 α      in ANC's #1, #6, #12, ...

........................................................................
.............................. CYCLE   57 ..............................
........................................................................

 iter      E             dE          RMSdq      gap      omega  full diag
   1   -290.7718145 -0.290772E+03  0.574E-03    0.68       0.0  T
   2   -290.7718155 -0.101158E-05  0.318E-03    0.68       2.2  T
   3   -290.7718127  0.283275E-05  0.259E-03    0.68       2.7  T
   4   -290.7718147 -0.200485E-05  0.173E-03    0.68       4.1  T
   5   -290.7718168 -0.211105E-05  0.375E-04    0.68      18.9  T
   6   -290.7718168 -0.193008E-07  0.175E-04    0.68      40.6  T
   7   -290.7718168 -0.258177E-08  0.120E-04    0.68      59.1  T
     SCC iter.                  ...        0 min,  0.241 sec
     gradient                   ...        0 min,  0.045 sec
 * total energy  :  -287.3719810 Eh     change       -0.1169677E-02 Eh
   gradient norm :     0.0073514 Eh/α   predicted    -0.1135632E-02 (  -2.91%)
   displ. norm   :     0.8552175 α      lambda       -0.1312747E-02
   maximum displ.:     0.2887550 α      in ANC's #1, #6, #12, ...

........................................................................
.............................. CYCLE   58 ..............................
........................................................................

 iter      E             dE          RMSdq      gap      omega  full diag
   1   -290.7735525 -0.290774E+03  0.732E-03    0.68       0.0  T
   2   -290.7735544 -0.186375E-05  0.382E-03    0.68       1.9  T
   3   -290.7735528  0.154876E-05  0.284E-03    0.68       2.5  T
   4   -290.7735538 -0.952997E-06  0.142E-03    0.68       5.0  T
   5   -290.7735551 -0.134926E-05  0.497E-04    0.68      14.3  T
   6   -290.7735553 -0.152024E-06  0.148E-04    0.68      47.7  T
   7   -290.7735553 -0.726880E-08  0.801E-05    0.68      88.5  T
     SCC iter.                  ...        0 min,  0.254 sec
     gradient                   ...        0 min,  0.038 sec
 * total energy  :  -287.3730539 Eh     change       -0.1072824E-02 Eh
   gradient norm :     0.0110877 Eh/α   predicted    -0.1136447E-02 (   5.93%)
   displ. norm   :     0.8235932 α      lambda       -0.1401059E-02
   maximum displ.:     0.2792244 α      in ANC's #1, #6, #12, ...

........................................................................
.............................. CYCLE   59 ..............................
........................................................................

 iter      E             dE          RMSdq      gap      omega  full diag
   1   -290.7737053 -0.290774E+03  0.768E-03    0.68       0.0  T
   2   -290.7737068 -0.153168E-05  0.408E-03    0.68       1.7  T
   3   -290.7737051  0.176358E-05  0.294E-03    0.68       2.4  T
   4   -290.7737062 -0.110866E-05  0.132E-03    0.68       5.4  T
   5   -290.7737072 -0.981136E-06  0.584E-04    0.68      12.1  T
   6   -290.7737074 -0.258702E-06  0.136E-04    0.68      52.0  T
   7   -290.7737074 -0.696889E-08  0.572E-05    0.68     124.0  T
     SCC iter.                  ...        0 min,  0.252 sec
     gradient                   ...        0 min,  0.045 sec
 * total energy  :  -287.3741273 Eh     change       -0.1073401E-02 Eh
   gradient norm :     0.0111478 Eh/α   predicted    -0.1175704E-02 (   9.53%)
   displ. norm   :     0.8087452 α      lambda       -0.1224092E-02
   maximum displ.:     0.2781858 α      in ANC's #1, #6, #12, ...

........................................................................
.............................. CYCLE   60 ..............................
........................................................................

 iter      E             dE          RMSdq      gap      omega  full diag
   1   -290.7698186 -0.290770E+03  0.505E-03    0.69       0.0  T
   2   -290.7698182  0.443854E-06  0.299E-03    0.68       2.4  T
   3   -290.7698154  0.275423E-05  0.307E-03    0.69       2.3  T
   4   -290.7698207 -0.526297E-05  0.998E-04    0.68       7.1  T
   5   -290.7698212 -0.518235E-06  0.306E-04    0.68      23.2  T
   6   -290.7698212 -0.298836E-07  0.136E-04    0.68      51.9  T
   7   -290.7698212  0.786713E-10  0.115E-04    0.68      61.8  T
     SCC iter.                  ...        0 min,  0.241 sec
     gradient                   ...        0 min,  0.055 sec
 * total energy  :  -287.3751663 Eh     change       -0.1039048E-02 Eh
   gradient norm :     0.0098231 Eh/α   predicted    -0.1012371E-02 (  -2.57%)
   displ. norm   :     0.7482355 α      lambda       -0.1404846E-02
   maximum displ.:     0.2526211 α      in ANC's #15, #1, #11, ...

........................................................................
.............................. CYCLE   61 ..............................
........................................................................

 iter      E             dE          RMSdq      gap      omega  full diag
   1   -290.7943861 -0.290794E+03  0.125E-02    0.69       0.0  T
   2   -290.7943894 -0.326797E-05  0.675E-03    0.69       1.1  T
   3   -290.7943729  0.165450E-04  0.550E-03    0.69       1.3  T
   4   -290.7943869 -0.140815E-04  0.253E-03    0.69       2.8  T
   5   -290.7943917 -0.476367E-05  0.619E-04    0.69      11.4  T
   6   -290.7943918 -0.133319E-06  0.333E-04    0.69      21.3  T
   7   -290.7943919 -0.723230E-07  0.204E-04    0.69      34.8  T
   8   -290.7943919 -0.293370E-07  0.339E-05    0.69     209.2  T
   9   -290.7943919 -0.388013E-09  0.102E-05    0.69     693.1  T
     SCC iter.                  ...        0 min,  0.323 sec
     gradient                   ...        0 min,  0.051 sec
 * total energy  :  -287.3757293 Eh     change       -0.5629543E-03 Eh
   gradient norm :     0.0201825 Eh/α   predicted    -0.1095680E-02 (  94.63%)
   displ. norm   :     0.6719596 α      lambda       -0.1687212E-02
   maximum displ.:     0.2264033 α      in ANC's #1, #6, #13, ...

........................................................................
.............................. CYCLE   62 ..............................
........................................................................

 iter      E             dE          RMSdq      gap      omega  full diag
   1   -290.7754195 -0.290775E+03  0.112E-02    0.69       0.0  T
   2   -290.7754205 -0.105804E-05  0.612E-03    0.69       1.2  T
   3   -290.7753928  0.276878E-04  0.615E-03    0.69       1.2  T
   4   -290.7754224 -0.295319E-04  0.202E-03    0.69       3.5  T
   5   -290.7754243 -0.196191E-05  0.639E-04    0.69      11.1  T
   6   -290.7754243  0.777231E-08  0.382E-04    0.69      18.6  T
   7   -290.7754244 -0.716803E-07  0.164E-04    0.69      43.2  T
   8   -290.7754244 -0.229001E-07  0.279E-05    0.69     253.9  T
     SCC iter.                  ...        0 min,  0.280 sec
     gradient                   ...        0 min,  0.038 sec
 * total energy  :  -287.3768346 Eh     change       -0.1105300E-02 Eh
   gradient norm :     0.0109633 Eh/α   predicted    -0.1224522E-02 (  10.79%)
   displ. norm   :     0.7570042 α      lambda       -0.1153675E-02
   maximum displ.:     0.2714641 α      in ANC's #1, #6, #11, ...

........................................................................
.............................. CYCLE   63 ..............................
........................................................................

 iter      E             dE          RMSdq      gap      omega  full diag
   1   -290.7690446 -0.290769E+03  0.830E-03    0.69       0.0  T
   2   -290.7690471 -0.256089E-05  0.446E-03    0.69       1.6  T
   3   -290.7690445  0.259380E-05  0.342E-03    0.69       2.1  T
   4   -290.7690461 -0.153666E-05  0.182E-03    0.69       3.9  T
   5   -290.7690484 -0.230364E-05  0.605E-04    0.69      11.7  T
   6   -290.7690486 -0.235816E-06  0.153E-04    0.69      46.3  T
   7   -290.7690486 -0.474654E-08  0.915E-05    0.69      77.5  T
     SCC iter.                  ...        0 min,  0.265 sec
     gradient                   ...        0 min,  0.041 sec
 * total energy  :  -287.3776548 Eh     change       -0.8202132E-03 Eh
   gradient norm :     0.0113440 Eh/α   predicted    -0.9074008E-03 (  10.63%)
   displ. norm   :     0.7645023 α      lambda       -0.9985405E-03
   maximum displ.:     0.2795754 α      in ANC's #1, #6, #11, ...

........................................................................
.............................. CYCLE   64 ..............................
........................................................................

 iter      E             dE          RMSdq      gap      omega  full diag
   1   -290.7707096 -0.290771E+03  0.468E-03    0.70       0.0  T
   2   -290.7707113 -0.168019E-05  0.240E-03    0.70       3.0  T
   3   -290.7707117 -0.423923E-06  0.164E-03    0.70       4.3  T
   4   -290.7707119 -0.180554E-06  0.546E-04    0.70      13.0  T
   5   -290.7707119  0.786326E-08  0.443E-04    0.70      16.0  T
   6   -290.7707120 -0.149105E-06  0.108E-04    0.70      65.3  T
   7   -290.7707120 -0.588312E-08  0.335E-05    0.70     211.5  T
     SCC iter.                  ...        0 min,  0.266 sec
     gradient                   ...        0 min,  0.042 sec
 * total energy  :  -287.3785201 Eh     change       -0.8653684E-03 Eh
   gradient norm :     0.0091494 Eh/α   predicted    -0.7910812E-03 (  -8.58%)
   displ. norm   :     0.6665185 α      lambda       -0.1147127E-02
   maximum displ.:     0.2564213 α      in ANC's #1, #15, #4, ...

........................................................................
.............................. CYCLE   65 ..............................
........................................................................

 iter      E             dE          RMSdq      gap      omega  full diag
   1   -290.7916033 -0.290792E+03  0.950E-03    0.70       0.0  T
   2   -290.7916041 -0.802629E-06  0.573E-03    0.70       1.2  T
   3   -290.7915915  0.126027E-04  0.545E-03    0.70       1.3  T
   4   -290.7916114 -0.199229E-04  0.294E-03    0.70       2.4  T
   5   -290.7916149 -0.342652E-05  0.638E-04    0.70      11.1  T
   6   -290.7916149 -0.448106E-07  0.259E-04    0.70      27.4  T
   7   -290.7916149  0.248099E-08  0.183E-04    0.70      38.8  T
   8   -290.7916149 -0.260342E-07  0.488E-05    0.70     145.2  T
     SCC iter.                  ...        0 min,  0.295 sec
     gradient                   ...        0 min,  0.039 sec
 * total energy  :  -287.3792124 Eh     change       -0.6923001E-03 Eh
   gradient norm :     0.0114939 Eh/α   predicted    -0.8283725E-03 (  19.66%)
   displ. norm   :     0.8155326 α      lambda       -0.1063552E-02
   maximum displ.:     0.2986262 α      in ANC's #1, #6, #4, ...

........................................................................
.............................. CYCLE   66 ..............................
........................................................................

 iter      E             dE          RMSdq      gap      omega  full diag
   1   -290.7794160 -0.290779E+03  0.886E-03    0.71       0.0  T
   2   -290.7794228 -0.678543E-05  0.472E-03    0.70       1.5  T
   3   -290.7794186  0.418899E-05  0.391E-03    0.70       1.8  T
   4   -290.7794217 -0.308461E-05  0.243E-03    0.70       2.9  T
   5   -290.7794254 -0.365243E-05  0.558E-04    0.70      12.7  T
   6   -290.7794255 -0.110660E-06  0.251E-04    0.70      28.2  T
   7   -290.7794255 -0.173799E-07  0.187E-04    0.70      37.9  T
   8   -290.7794255 -0.282811E-07  0.373E-05    0.70     190.0  T
     SCC iter.                  ...        0 min,  0.294 sec
     gradient                   ...        0 min,  0.043 sec
 * total energy  :  -287.3799304 Eh     change       -0.7180005E-03 Eh
   gradient norm :     0.0106503 Eh/α   predicted    -0.8854621E-03 (  23.32%)
   displ. norm   :     0.7150105 α      lambda       -0.8595891E-03
   maximum displ.:     0.2767691 α      in ANC's #1, #4, #6, ...
 * RMSD in coord.:     1.0972340 α      energy gain  -0.2763872E-01 Eh

generating ANC from exact Hessian ...
Using Lindh-Hessian (1995)
 Shifting diagonal of input Hessian by   1.008399422825561E-002
 Lowest  eigenvalues of input Hessian
    0.010000    0.010030    0.010036    0.010039    0.000000    0.000000
    0.000000    0.000000    0.000000    0.000000    0.010103    0.010107
    0.010146    0.010169    0.010199    0.010294    0.010324    0.010353
 Highest eigenvalues
    2.022121    2.081339    2.159065    2.178502    2.351077    2.354805
 

........................................................................
.............................. CYCLE   67 ..............................
........................................................................

 iter      E             dE          RMSdq      gap      omega  full diag
   1   -290.7746625 -0.290775E+03  0.786E-03    0.71       0.0  T
   2   -290.7746675 -0.506613E-05  0.443E-03    0.71       1.6  T
   3   -290.7746644  0.310098E-05  0.313E-03    0.71       2.3  T
   4   -290.7746640  0.417008E-06  0.263E-03    0.71       2.7  T
   5   -290.7746692 -0.520566E-05  0.760E-04    0.71       9.3  T
   6   -290.7746694 -0.186584E-06  0.158E-04    0.71      44.8  T
   7   -290.7746694  0.502547E-08  0.109E-04    0.71      65.0  T
     SCC iter.                  ...        0 min,  0.231 sec
     gradient                   ...        0 min,  0.035 sec
 * total energy  :  -287.3804443 Eh     change       -0.5138347E-03 Eh
   gradient norm :     0.0112108 Eh/α   predicted     0.0000000E+00 (-100.00%)
   displ. norm   :     0.1149344 α      lambda       -0.4122789E-03
   maximum displ.:     0.0336401 α      in ANC's #1, #118, #21, ...

........................................................................
.............................. CYCLE   68 ..............................
........................................................................

 iter      E             dE          RMSdq      gap      omega  full diag
   1   -290.7820631 -0.290782E+03  0.396E-03    0.71       0.0  T
   2   -290.7820639 -0.786623E-06  0.225E-03    0.71       3.2  T
   3   -290.7820636  0.339323E-06  0.140E-03    0.71       5.1  T
   4   -290.7820636  0.279748E-07  0.832E-04    0.71       8.5  T
   5   -290.7820640 -0.476145E-06  0.351E-04    0.71      20.2  T
   6   -290.7820641 -0.963535E-07  0.763E-05    0.71      92.9  T
   7   -290.7820641  0.363059E-09  0.549E-05    0.71     129.2  T
     SCC iter.                  ...        0 min,  0.245 sec
     gradient                   ...        0 min,  0.056 sec
 * total energy  :  -287.3807473 Eh     change       -0.3029874E-03 Eh
   gradient norm :     0.0034934 Eh/α   predicted    -0.2088631E-03 ( -31.07%)
   displ. norm   :     0.2380054 α      lambda       -0.3823185E-03
   maximum displ.:     0.0750573 α      in ANC's #1, #23, #16, ...

........................................................................
.............................. CYCLE   69 ..............................
........................................................................

 iter      E             dE          RMSdq      gap      omega  full diag
   1   -290.7880546 -0.290788E+03  0.381E-03    0.71       0.0  T
   2   -290.7880559 -0.122631E-05  0.234E-03    0.71       3.0  T
   3   -290.7880559 -0.192671E-08  0.160E-03    0.71       4.4  T
   4   -290.7880555  0.359225E-06  0.129E-03    0.71       5.5  T
   5   -290.7880567 -0.122475E-05  0.338E-04    0.71      21.0  T
   6   -290.7880568 -0.546073E-07  0.109E-04    0.71      64.9  T
   7   -290.7880568  0.744592E-09  0.871E-05    0.71      81.4  T
     SCC iter.                  ...        0 min,  0.238 sec
     gradient                   ...        0 min,  0.038 sec
 * total energy  :  -287.3810277 Eh     change       -0.2804759E-03 Eh
   gradient norm :     0.0054037 Eh/α   predicted    -0.2019940E-03 ( -27.98%)
   displ. norm   :     0.4043486 α      lambda       -0.4528014E-03
   maximum displ.:     0.1323339 α      in ANC's #1, #23, #16, ...

........................................................................
.............................. CYCLE   70 ..............................
........................................................................

 iter      E             dE          RMSdq      gap      omega  full diag
   1   -290.7906659 -0.290791E+03  0.317E-03    0.71       0.0  T
   2   -290.7906671 -0.124305E-05  0.171E-03    0.71       4.1  T
   3   -290.7906669  0.230616E-06  0.135E-03    0.71       5.2  T
   4   -290.7906673 -0.444678E-06  0.109E-03    0.71       6.5  T
   5   -290.7906680 -0.673595E-06  0.223E-04    0.71      31.7  T
   6   -290.7906680 -0.650886E-08  0.104E-04    0.71      68.1  T
   7   -290.7906680 -0.948717E-09  0.746E-05    0.71      95.0  T
     SCC iter.                  ...        0 min,  0.248 sec
     gradient                   ...        0 min,  0.044 sec
 * total energy  :  -287.3813702 Eh     change       -0.3425012E-03 Eh
   gradient norm :     0.0097292 Eh/α   predicted    -0.2634174E-03 ( -23.09%)
   displ. norm   :     0.6006571 α      lambda       -0.6207365E-03
   maximum displ.:     0.1969371 α      in ANC's #1, #23, #16, ...

........................................................................
.............................. CYCLE   71 ..............................
........................................................................

 iter      E             dE          RMSdq      gap      omega  full diag
   1   -290.7869956 -0.290787E+03  0.508E-03    0.72       0.0  T
   2   -290.7869989 -0.330101E-05  0.254E-03    0.72       2.8  T
   3   -290.7869993 -0.437144E-06  0.148E-03    0.72       4.8  T
   4   -290.7869992  0.182413E-06  0.984E-04    0.72       7.2  T
   5   -290.7869995 -0.324935E-06  0.494E-04    0.72      14.4  T
   6   -290.7869997 -0.182960E-06  0.132E-04    0.72      53.6  T
   7   -290.7869997 -0.872791E-08  0.430E-05    0.72     165.0  T
     SCC iter.                  ...        0 min,  0.232 sec
     gradient                   ...        0 min,  0.044 sec
 * total energy  :  -287.3818239 Eh     change       -0.4536335E-03 Eh
   gradient norm :     0.0105443 Eh/α   predicted    -0.4224306E-03 (  -6.88%)
   displ. norm   :     0.5280773 α      lambda       -0.5368658E-03
   maximum displ.:     0.1858528 α      in ANC's #1, #23, #16, ...

........................................................................
.............................. CYCLE   72 ..............................
........................................................................

 iter      E             dE          RMSdq      gap      omega  full diag
   1   -290.7816870 -0.290782E+03  0.479E-03    0.72       0.0  T
   2   -290.7816869  0.595299E-07  0.314E-03    0.72       2.3  T
   3   -290.7816854  0.151705E-05  0.287E-03    0.72       2.5  T
   4   -290.7816902 -0.473594E-05  0.119E-03    0.72       6.0  T
   5   -290.7816907 -0.541378E-06  0.295E-04    0.72      24.0  T
   6   -290.7816907 -0.152835E-07  0.115E-04    0.72      61.6  T
   7   -290.7816907  0.256694E-08  0.979E-05    0.72      72.4  T
     SCC iter.                  ...        0 min,  0.232 sec
     gradient                   ...        0 min,  0.038 sec
 * total energy  :  -287.3822034 Eh     change       -0.3794925E-03 Eh
   gradient norm :     0.0085359 Eh/α   predicted    -0.3432921E-03 (  -9.54%)
   displ. norm   :     0.4120262 α      lambda       -0.4990431E-03
   maximum displ.:     0.1593150 α      in ANC's #1, #23, #16, ...

........................................................................
.............................. CYCLE   73 ..............................
........................................................................

 iter      E             dE          RMSdq      gap      omega  full diag
   1   -290.7812990 -0.290781E+03  0.451E-03    0.73       0.0  T
   2   -290.7813005 -0.151522E-05  0.273E-03    0.73       2.6  T
   3   -290.7813001  0.405101E-06  0.212E-03    0.73       3.3  T
   4   -290.7813011 -0.926669E-06  0.128E-03    0.73       5.5  T
   5   -290.7813021 -0.101508E-05  0.427E-04    0.73      16.6  T
   6   -290.7813022 -0.101739E-06  0.126E-04    0.73      56.4  T
   7   -290.7813022  0.823150E-09  0.979E-05    0.73      72.4  T
     SCC iter.                  ...        0 min,  0.262 sec
     gradient                   ...        0 min,  0.046 sec
 * total energy  :  -287.3825466 Eh     change       -0.3432619E-03 Eh
   gradient norm :     0.0068361 Eh/α   predicted    -0.2918860E-03 ( -14.97%)
   displ. norm   :     0.4692257 α      lambda       -0.3812712E-03
   maximum displ.:     0.1865712 α      in ANC's #1, #23, #16, ...

........................................................................
.............................. CYCLE   74 ..............................
........................................................................

 iter      E             dE          RMSdq      gap      omega  full diag
   1   -290.7817075 -0.290782E+03  0.248E-03    0.73       0.0  T
   2   -290.7817080 -0.558398E-06  0.144E-03    0.73       4.9  T
   3   -290.7817082 -0.137191E-06  0.110E-03    0.73       6.4  T
   4   -290.7817085 -0.343255E-06  0.491E-04    0.73      14.4  T
   5   -290.7817086 -0.670992E-07  0.282E-04    0.73      25.1  T
   6   -290.7817086 -0.617968E-07  0.881E-05    0.73      80.5  T
   7   -290.7817086 -0.469242E-09  0.706E-05    0.73     100.4  T
     SCC iter.                  ...        0 min,  0.244 sec
     gradient                   ...        0 min,  0.042 sec
 * total energy  :  -287.3828712 Eh     change       -0.3245455E-03 Eh
   gradient norm :     0.0080263 Eh/α   predicted    -0.2326096E-03 ( -28.33%)
   displ. norm   :     0.6006164 α      lambda       -0.5617642E-03
   maximum displ.:     0.2465382 α      in ANC's #1, #23, #4, ...

........................................................................
.............................. CYCLE   75 ..............................
........................................................................

 iter      E             dE          RMSdq      gap      omega  full diag
   1   -290.7856430 -0.290786E+03  0.415E-03    0.73       0.0  T
   2   -290.7856437 -0.669376E-06  0.256E-03    0.73       2.8  T
   3   -290.7856440 -0.298404E-06  0.211E-03    0.73       3.4  T
   4   -290.7856454 -0.143458E-05  0.859E-04    0.73       8.3  T
   5   -290.7856457 -0.273812E-06  0.443E-04    0.73      16.0  T
   6   -290.7856458 -0.137273E-06  0.158E-04    0.73      44.7  T
   7   -290.7856458 -0.715920E-08  0.104E-04    0.73      68.3  T
     SCC iter.                  ...        0 min,  0.258 sec
     gradient                   ...        0 min,  0.056 sec
 * total energy  :  -287.3833421 Eh     change       -0.4709677E-03 Eh
   gradient norm :     0.0073567 Eh/α   predicted    -0.3822439E-03 ( -18.84%)
   displ. norm   :     0.7039894 α      lambda       -0.5900587E-03
   maximum displ.:     0.2927551 α      in ANC's #1, #23, #4, ...

........................................................................
.............................. CYCLE   76 ..............................
........................................................................

 iter      E             dE          RMSdq      gap      omega  full diag
   1   -290.7865844 -0.290787E+03  0.422E-03    0.73       0.0  T
   2   -290.7865856 -0.119306E-05  0.235E-03    0.73       3.0  T
   3   -290.7865852  0.362199E-06  0.196E-03    0.73       3.6  T
   4   -290.7865868 -0.158570E-05  0.996E-04    0.73       7.1  T
   5   -290.7865873 -0.537416E-06  0.350E-04    0.73      20.2  T
   6   -290.7865874 -0.473416E-07  0.157E-04    0.73      45.1  T
   7   -290.7865874 -0.357835E-08  0.918E-05    0.73      77.2  T
     SCC iter.                  ...        0 min,  0.240 sec
     gradient                   ...        0 min,  0.041 sec
 * total energy  :  -287.3838398 Eh     change       -0.4976991E-03 Eh
   gradient norm :     0.0072633 Eh/α   predicted    -0.4412514E-03 ( -11.34%)
   displ. norm   :     0.6552968 α      lambda       -0.6824438E-03
   maximum displ.:     0.2780133 α      in ANC's #1, #4, #23, ...

........................................................................
.............................. CYCLE   77 ..............................
........................................................................

 iter      E             dE          RMSdq      gap      omega  full diag
   1   -290.7943958 -0.290794E+03  0.696E-03    0.73       0.0  T
   2   -290.7943983 -0.255958E-05  0.427E-03    0.73       1.7  T
   3   -290.7943970  0.131167E-05  0.379E-03    0.73       1.9  T
   4   -290.7944025 -0.542983E-05  0.162E-03    0.73       4.4  T
   5   -290.7944034 -0.921563E-06  0.673E-04    0.73      10.5  T
   6   -290.7944037 -0.343062E-06  0.198E-04    0.73      35.9  T
   7   -290.7944037 -0.220753E-07  0.514E-05    0.73     138.0  T
     SCC iter.                  ...        0 min,  0.246 sec
     gradient                   ...        0 min,  0.048 sec
 * total energy  :  -287.3843069 Eh     change       -0.4670292E-03 Eh
   gradient norm :     0.0099568 Eh/α   predicted    -0.4877517E-03 (   4.44%)
   displ. norm   :     0.7508398 α      lambda       -0.6909917E-03
   maximum displ.:     0.3149224 α      in ANC's #1, #4, #23, ...

........................................................................
.............................. CYCLE   78 ..............................
........................................................................

 iter      E             dE          RMSdq      gap      omega  full diag
   1   -290.7851510 -0.290785E+03  0.732E-03    0.74       0.0  T
   2   -290.7851486  0.240396E-05  0.475E-03    0.73       1.5  T
   3   -290.7851443  0.430630E-05  0.472E-03    0.74       1.5  T
   4   -290.7851560 -0.116978E-04  0.145E-03    0.73       4.9  T
   5   -290.7851568 -0.801609E-06  0.464E-04    0.73      15.3  T
   6   -290.7851569 -0.106624E-06  0.170E-04    0.73      41.8  T
   7   -290.7851569 -0.662982E-08  0.904E-05    0.73      78.4  T
     SCC iter.                  ...        0 min,  0.244 sec
     gradient                   ...        0 min,  0.038 sec
 * total energy  :  -287.3847995 Eh     change       -0.4926671E-03 Eh
   gradient norm :     0.0117773 Eh/α   predicted    -0.5402740E-03 (   9.66%)
   displ. norm   :     0.5065391 α      lambda       -0.6670813E-03
   maximum displ.:     0.2211516 α      in ANC's #1, #4, #8, ...

........................................................................
.............................. CYCLE   79 ..............................
........................................................................

 iter      E             dE          RMSdq      gap      omega  full diag
   1   -290.7837298 -0.290784E+03  0.529E-03    0.74       0.0  T
   2   -290.7837298 -0.159127E-07  0.319E-03    0.74       2.2  T
   3   -290.7837244  0.540930E-05  0.332E-03    0.74       2.1  T
   4   -290.7837324 -0.806624E-05  0.119E-03    0.74       6.0  T
   5   -290.7837329 -0.483380E-06  0.347E-04    0.74      20.4  T
   6   -290.7837329  0.907528E-08  0.243E-04    0.74      29.1  T
   7   -290.7837330 -0.354674E-07  0.788E-05    0.74      89.9  T
   8   -290.7837330 -0.504758E-08  0.218E-05    0.74     324.7  T
     SCC iter.                  ...        0 min,  0.276 sec
     gradient                   ...        0 min,  0.049 sec
 * total energy  :  -287.3852945 Eh     change       -0.4949480E-03 Eh
   gradient norm :     0.0093288 Eh/α   predicted    -0.4191235E-03 ( -15.32%)
   displ. norm   :     0.6166080 α      lambda       -0.7742673E-03
   maximum displ.:     0.2619004 α      in ANC's #1, #4, #8, ...

........................................................................
.............................. CYCLE   80 ..............................
........................................................................

 iter      E             dE          RMSdq      gap      omega  full diag
   1   -290.7843311 -0.290784E+03  0.667E-03    0.75       0.0  T
   2   -290.7843330 -0.192944E-05  0.363E-03    0.75       2.0  T
   3   -290.7843330  0.383352E-07  0.197E-03    0.75       3.6  T
   4   -290.7843333 -0.310992E-06  0.599E-04    0.75      11.8  T
   5   -290.7843333 -0.300851E-07  0.301E-04    0.75      23.6  T
   6   -290.7843333 -0.351233E-07  0.192E-04    0.75      36.9  T
   7   -290.7843334 -0.317999E-07  0.353E-05    0.75     201.0  T
     SCC iter.                  ...        0 min,  0.232 sec
     gradient                   ...        0 min,  0.044 sec
 * total energy  :  -287.3858117 Eh     change       -0.5172344E-03 Eh
   gradient norm :     0.0112370 Eh/α   predicted    -0.5343246E-03 (   3.30%)
   displ. norm   :     0.5432087 α      lambda       -0.7697206E-03
   maximum displ.:     0.2376941 α      in ANC's #1, #4, #22, ...

........................................................................
.............................. CYCLE   81 ..............................
........................................................................

 iter      E             dE          RMSdq      gap      omega  full diag
   1   -290.7874825 -0.290787E+03  0.653E-03    0.75       0.0  T
   2   -290.7874777  0.474361E-05  0.466E-03    0.75       1.5  T
   3   -290.7874779 -0.177461E-06  0.423E-03    0.75       1.7  T
   4   -290.7874887 -0.108072E-04  0.133E-03    0.75       5.3  T
   5   -290.7874890 -0.337489E-06  0.407E-04    0.75      17.4  T
   6   -290.7874891 -0.333168E-07  0.274E-04    0.75      25.9  T
   7   -290.7874891 -0.539783E-07  0.121E-04    0.75      58.7  T
   8   -290.7874891 -0.800992E-08  0.210E-05    0.75     337.0  T
     SCC iter.                  ...        0 min,  0.279 sec
     gradient                   ...        0 min,  0.036 sec
 * total energy  :  -287.3862918 Eh     change       -0.4801161E-03 Eh
   gradient norm :     0.0095075 Eh/α   predicted    -0.4984257E-03 (   3.81%)
   displ. norm   :     0.7465624 α      lambda       -0.7004933E-03
   maximum displ.:     0.3390681 α      in ANC's #1, #4, #8, ...

........................................................................
.............................. CYCLE   82 ..............................
........................................................................

 iter      E             dE          RMSdq      gap      omega  full diag
   1   -290.7813967 -0.290781E+03  0.618E-03    0.75       0.0  T
   2   -290.7813981 -0.142313E-05  0.327E-03    0.75       2.2  T
   3   -290.7813956  0.257505E-05  0.299E-03    0.75       2.4  T
   4   -290.7813977 -0.211206E-05  0.142E-03    0.75       5.0  T
   5   -290.7813990 -0.132291E-05  0.446E-04    0.75      15.9  T
   6   -290.7813991 -0.128275E-06  0.137E-04    0.75      51.7  T
   7   -290.7813991 -0.883495E-08  0.414E-05    0.75     171.2  T
     SCC iter.                  ...        0 min,  0.235 sec
     gradient                   ...        0 min,  0.036 sec
 * total energy  :  -287.3868263 Eh     change       -0.5344381E-03 Eh
   gradient norm :     0.0088252 Eh/α   predicted    -0.5454595E-03 (   2.06%)
   displ. norm   :     0.5343121 α      lambda       -0.7277301E-03
   maximum displ.:     0.2497466 α      in ANC's #1, #4, #8, ...

........................................................................
.............................. CYCLE   83 ..............................
........................................................................

 iter      E             dE          RMSdq      gap      omega  full diag
   1   -290.7906810 -0.290791E+03  0.562E-03    0.75       0.0  T
   2   -290.7906817 -0.697485E-06  0.332E-03    0.75       2.1  T
   3   -290.7906756  0.610118E-05  0.337E-03    0.75       2.1  T
   4   -290.7906833 -0.772736E-05  0.142E-03    0.75       5.0  T
   5   -290.7906841 -0.860287E-06  0.349E-04    0.75      20.3  T
   6   -290.7906842 -0.260661E-07  0.121E-04    0.75      58.8  T
   7   -290.7906842 -0.358142E-08  0.419E-05    0.75     169.2  T
     SCC iter.                  ...        0 min,  0.242 sec
     gradient                   ...        0 min,  0.037 sec
 * total energy  :  -287.3872872 Eh     change       -0.4609229E-03 Eh
   gradient norm :     0.0100799 Eh/α   predicted    -0.4677455E-03 (   1.48%)
   displ. norm   :     0.6401111 α      lambda       -0.5746511E-03
   maximum displ.:     0.3065111 α      in ANC's #1, #4, #8, ...

........................................................................
.............................. CYCLE   84 ..............................
........................................................................

 iter      E             dE          RMSdq      gap      omega  full diag
   1   -290.7880432 -0.290788E+03  0.357E-03    0.75       0.0  T
   2   -290.7880436 -0.430024E-06  0.200E-03    0.75       3.5  T
   3   -290.7880431  0.541452E-06  0.195E-03    0.75       3.6  T
   4   -290.7880447 -0.157244E-05  0.765E-04    0.75       9.3  T
   5   -290.7880449 -0.281073E-06  0.316E-04    0.75      22.4  T
   6   -290.7880450 -0.607923E-07  0.960E-05    0.75      73.9  T
   7   -290.7880450  0.157775E-08  0.834E-05    0.75      85.0  T
     SCC iter.                  ...        0 min,  0.239 sec
     gradient                   ...        0 min,  0.036 sec
 * total energy  :  -287.3877754 Eh     change       -0.4882004E-03 Eh
   gradient norm :     0.0090332 Eh/α   predicted    -0.4050613E-03 ( -17.03%)
   displ. norm   :     0.5891064 α      lambda       -0.7565737E-03
   maximum displ.:     0.2836319 α      in ANC's #1, #4, #22, ...

........................................................................
.............................. CYCLE   85 ..............................
........................................................................

 iter      E             dE          RMSdq      gap      omega  full diag
   1   -290.7941605 -0.290794E+03  0.715E-03    0.75       0.0  T
   2   -290.7941601  0.420771E-06  0.439E-03    0.75       1.6  T
   3   -290.7941551  0.500567E-05  0.443E-03    0.75       1.6  T
   4   -290.7941635 -0.844973E-05  0.166E-03    0.75       4.3  T
   5   -290.7941650 -0.150778E-05  0.540E-04    0.75      13.1  T
   6   -290.7941652 -0.194635E-06  0.184E-04    0.75      38.5  T
   7   -290.7941652 -0.853390E-09  0.167E-04    0.75      42.6  T
     SCC iter.                  ...        0 min,  0.237 sec
     gradient                   ...        0 min,  0.035 sec
 * total energy  :  -287.3882612 Eh     change       -0.4858092E-03 Eh
   gradient norm :     0.0087374 Eh/α   predicted    -0.5095743E-03 (   4.89%)
   displ. norm   :     0.7782099 α      lambda       -0.6421477E-03
   maximum displ.:     0.3751834 α      in ANC's #1, #4, #8, ...

........................................................................
.............................. CYCLE   86 ..............................
........................................................................

 iter      E             dE          RMSdq      gap      omega  full diag
   1   -290.7869840 -0.290787E+03  0.669E-03    0.76       0.0  T
   2   -290.7869826  0.139998E-05  0.435E-03    0.75       1.6  T
   3   -290.7869818  0.812188E-06  0.404E-03    0.76       1.8  T
   4   -290.7869887 -0.697504E-05  0.154E-03    0.76       4.6  T
   5   -290.7869897 -0.100777E-05  0.526E-04    0.76      13.5  T
   6   -290.7869899 -0.180933E-06  0.150E-04    0.76      47.4  T
   7   -290.7869899 -0.359512E-08  0.909E-05    0.76      77.9  T
     SCC iter.                  ...        0 min,  0.238 sec
     gradient                   ...        0 min,  0.036 sec
 * total energy  :  -287.3887386 Eh     change       -0.4773713E-03 Eh
   gradient norm :     0.0087223 Eh/α   predicted    -0.5155251E-03 (   7.99%)
   displ. norm   :     0.6189076 α      lambda       -0.4997707E-03
   maximum displ.:     0.3099713 α      in ANC's #1, #4, #8, ...

........................................................................
.............................. CYCLE   87 ..............................
........................................................................

 iter      E             dE          RMSdq      gap      omega  full diag
   1   -290.7861044 -0.290786E+03  0.411E-03    0.76       0.0  T
   2   -290.7861054 -0.999688E-06  0.214E-03    0.76       3.3  T
   3   -290.7861051  0.312934E-06  0.204E-03    0.76       3.5  T
   4   -290.7861061 -0.961067E-06  0.848E-04    0.76       8.4  T
   5   -290.7861065 -0.383413E-06  0.387E-04    0.76      18.3  T
   6   -290.7861066 -0.991995E-07  0.138E-04    0.76      51.5  T
   7   -290.7861066 -0.334688E-08  0.964E-05    0.76      73.5  T
     SCC iter.                  ...        0 min,  0.265 sec
     gradient                   ...        0 min,  0.041 sec
 * total energy  :  -287.3891526 Eh     change       -0.4139896E-03 Eh
   gradient norm :     0.0084268 Eh/α   predicted    -0.3456069E-03 ( -16.52%)
   displ. norm   :     0.5885764 α      lambda       -0.6357289E-03
   maximum displ.:     0.2876266 α      in ANC's #1, #4, #22, ...

........................................................................
.............................. CYCLE   88 ..............................
........................................................................

 iter      E             dE          RMSdq      gap      omega  full diag
   1   -290.7942970 -0.290794E+03  0.573E-03    0.77       0.0  T
   2   -290.7942984 -0.136457E-05  0.300E-03    0.77       2.4  T
   3   -290.7942957  0.273685E-05  0.287E-03    0.77       2.5  T
   4   -290.7942992 -0.358923E-05  0.135E-03    0.77       5.3  T
   5   -290.7943003 -0.106249E-05  0.405E-04    0.77      17.5  T
   6   -290.7943004 -0.695464E-07  0.192E-04    0.77      36.8  T
   7   -290.7943004 -0.294597E-08  0.114E-04    0.77      62.3  T
     SCC iter.                  ...        0 min,  0.240 sec
     gradient                   ...        0 min,  0.055 sec
 * total energy  :  -287.3896251 Eh     change       -0.4725372E-03 Eh
   gradient norm :     0.0067507 Eh/α   predicted    -0.4279846E-03 (  -9.43%)
   displ. norm   :     0.7449971 α      lambda       -0.5468903E-03
   maximum displ.:     0.3695566 α      in ANC's #1, #4, #8, ...

........................................................................
.............................. CYCLE   89 ..............................
........................................................................

 iter      E             dE          RMSdq      gap      omega  full diag
   1   -290.7917580 -0.290792E+03  0.490E-03    0.78       0.0  T
   2   -290.7917581 -0.161691E-06  0.307E-03    0.77       2.3  T
   3   -290.7917583 -0.208494E-06  0.301E-03    0.78       2.4  T
   4   -290.7917623 -0.396048E-05  0.931E-04    0.78       7.6  T
   5   -290.7917623  0.832790E-08  0.575E-04    0.78      12.3  T
   6   -290.7917625 -0.222886E-06  0.199E-04    0.78      35.7  T
   7   -290.7917625 -0.768716E-08  0.131E-04    0.78      54.2  T
     SCC iter.                  ...        0 min,  0.243 sec
     gradient                   ...        0 min,  0.052 sec
 * total energy  :  -287.3900887 Eh     change       -0.4635840E-03 Eh
   gradient norm :     0.0073737 Eh/α   predicted    -0.4252171E-03 (  -8.28%)
   displ. norm   :     0.7429158 α      lambda       -0.6158215E-03
   maximum displ.:     0.3591231 α      in ANC's #1, #4, #22, ...

........................................................................
.............................. CYCLE   90 ..............................
........................................................................

 iter      E             dE          RMSdq      gap      omega  full diag
   1   -290.7935008 -0.290794E+03  0.474E-03    0.78       0.0  T
   2   -290.7935025 -0.166020E-05  0.271E-03    0.78       2.6  T
   3   -290.7935023  0.212926E-06  0.286E-03    0.78       2.5  T
   4   -290.7935055 -0.324702E-05  0.868E-04    0.78       8.2  T
   5   -290.7935053  0.204009E-06  0.677E-04    0.78      10.5  T
   6   -290.7935056 -0.334993E-06  0.197E-04    0.78      35.9  T
   7   -290.7935056 -0.662521E-08  0.135E-04    0.78      52.7  T
     SCC iter.                  ...        0 min,  0.233 sec
     gradient                   ...        0 min,  0.043 sec
 * total energy  :  -287.3905909 Eh     change       -0.5021820E-03 Eh
   gradient norm :     0.0072749 Eh/α   predicted    -0.4778562E-03 (  -4.84%)
   displ. norm   :     0.7175403 α      lambda       -0.6230281E-03
   maximum displ.:     0.3300033 α      in ANC's #1, #4, #22, ...

........................................................................
.............................. CYCLE   91 ..............................
........................................................................

 iter      E             dE          RMSdq      gap      omega  full diag
   1   -290.7960362 -0.290796E+03  0.489E-03    0.79       0.0  T
   2   -290.7960387 -0.248598E-05  0.242E-03    0.79       2.9  T
   3   -290.7960374  0.127508E-05  0.236E-03    0.79       3.0  T
   4   -290.7960398 -0.232826E-05  0.988E-04    0.79       7.2  T
   5   -290.7960402 -0.408945E-06  0.368E-04    0.79      19.3  T
   6   -290.7960402 -0.523046E-07  0.147E-04    0.79      48.1  T
   7   -290.7960402 -0.455543E-09  0.132E-04    0.79      53.7  T
     SCC iter.                  ...        0 min,  0.244 sec
     gradient                   ...        0 min,  0.034 sec
 * total energy  :  -287.3910993 Eh     change       -0.5083922E-03 Eh
   gradient norm :     0.0071347 Eh/α   predicted    -0.4719035E-03 (  -7.18%)
   displ. norm   :     0.7804512 α      lambda       -0.5902538E-03
   maximum displ.:     0.3598967 α      in ANC's #1, #4, #22, ...

........................................................................
.............................. CYCLE   92 ..............................
........................................................................

 iter      E             dE          RMSdq      gap      omega  full diag
   1   -290.7919518 -0.290792E+03  0.484E-03    0.80       0.0  T
   2   -290.7919540 -0.213126E-05  0.251E-03    0.80       2.8  T
   3   -290.7919525  0.144592E-05  0.223E-03    0.80       3.2  T
   4   -290.7919545 -0.193801E-05  0.123E-03    0.80       5.8  T
   5   -290.7919555 -0.983001E-06  0.283E-04    0.80      25.1  T
   6   -290.7919555 -0.174808E-07  0.111E-04    0.80      63.7  T
   7   -290.7919555 -0.100209E-08  0.494E-05    0.80     143.5  T
     SCC iter.                  ...        0 min,  0.241 sec
     gradient                   ...        0 min,  0.040 sec
 * total energy  :  -287.3915901 Eh     change       -0.4908548E-03 Eh
   gradient norm :     0.0088842 Eh/α   predicted    -0.4748964E-03 (  -3.25%)
   displ. norm   :     0.6906704 α      lambda       -0.8218829E-03
   maximum displ.:     0.2079647 α      in ANC's #1, #16, #28, ...
 * RMSD in coord.:     0.9398455 α      energy gain  -0.1165968E-01 Eh

generating ANC from exact Hessian ...
Using Lindh-Hessian (1995)
 Shifting diagonal of input Hessian by   1.007693901385591E-002
 Lowest  eigenvalues of input Hessian
    0.010000    0.010006    0.010030    0.010036    0.000000    0.010055
    0.000000    0.000000    0.000000    0.000000    0.000000    0.010126
    0.010138    0.010183    0.010216    0.010263    0.010311    0.010339
 Highest eigenvalues
    2.024858    2.083394    2.161435    2.180669    2.328898    2.359872
 

........................................................................
.............................. CYCLE   93 ..............................
........................................................................

 iter      E             dE          RMSdq      gap      omega  full diag
   1   -290.8036674 -0.290804E+03  0.103E-02    0.80       0.0  T
   2   -290.8036759 -0.851544E-05  0.536E-03    0.80       1.3  T
   3   -290.8036764 -0.452291E-06  0.326E-03    0.80       2.2  T
   4   -290.8036752  0.115280E-05  0.207E-03    0.80       3.4  T
   5   -290.8036772 -0.192258E-05  0.100E-03    0.80       7.1  T
   6   -290.8036780 -0.792016E-06  0.293E-04    0.80      24.2  T
   7   -290.8036780 -0.389710E-07  0.121E-04    0.80      58.8  T
   8   -290.8036780 -0.751584E-08  0.843E-05    0.80      84.1  T
     SCC iter.                  ...        0 min,  0.261 sec
     gradient                   ...        0 min,  0.050 sec
 * total energy  :  -287.3918304 Eh     change       -0.2402369E-03 Eh
   gradient norm :     0.0150984 Eh/α   predicted     0.0000000E+00 (-100.00%)
   displ. norm   :     0.1202442 α      lambda       -0.6565958E-03
   maximum displ.:     0.0329212 α      in ANC's #19, #1, #2, ...

........................................................................
.............................. CYCLE   94 ..............................
........................................................................

 iter      E             dE          RMSdq      gap      omega  full diag
   1   -290.7989809 -0.290799E+03  0.584E-03    0.80       0.0  T
   2   -290.7989811 -0.201914E-06  0.346E-03    0.80       2.1  T
   3   -290.7989783  0.279090E-05  0.321E-03    0.80       2.2  T
   4   -290.7989814 -0.301314E-05  0.153E-03    0.80       4.6  T
   5   -290.7989828 -0.145171E-05  0.436E-04    0.80      16.3  T
   6   -290.7989830 -0.145007E-06  0.116E-04    0.80      61.0  T
   7   -290.7989830 -0.451604E-08  0.621E-05    0.80     114.1  T
     SCC iter.                  ...        0 min,  0.241 sec
     gradient                   ...        0 min,  0.042 sec
 * total energy  :  -287.3922823 Eh     change       -0.4518981E-03 Eh
   gradient norm :     0.0055243 Eh/α   predicted    -0.3330466E-03 ( -26.30%)
   displ. norm   :     0.1795174 α      lambda       -0.3157007E-03
   maximum displ.:     0.0575153 α      in ANC's #19, #1, #2, ...

........................................................................
.............................. CYCLE   95 ..............................
........................................................................

 iter      E             dE          RMSdq      gap      omega  full diag
   1   -290.7960456 -0.290796E+03  0.415E-03    0.80       0.0  T
   2   -290.7960462 -0.594164E-06  0.260E-03    0.80       2.7  T
   3   -290.7960462 -0.137464E-07  0.201E-03    0.80       3.5  T
   4   -290.7960472 -0.975753E-06  0.110E-03    0.80       6.4  T
   5   -290.7960478 -0.568198E-06  0.371E-04    0.80      19.1  T
   6   -290.7960479 -0.853169E-07  0.183E-04    0.80      38.7  T
   7   -290.7960479 -0.215578E-07  0.886E-05    0.80      80.1  T
     SCC iter.                  ...        0 min,  0.257 sec
     gradient                   ...        0 min,  0.038 sec
 * total energy  :  -287.3925069 Eh     change       -0.2246634E-03 Eh
   gradient norm :     0.0034316 Eh/α   predicted    -0.1629483E-03 ( -27.47%)
   displ. norm   :     0.2705631 α      lambda       -0.2798790E-03
   maximum displ.:     0.0916465 α      in ANC's #19, #1, #2, ...

........................................................................
.............................. CYCLE   96 ..............................
........................................................................

 iter      E             dE          RMSdq      gap      omega  full diag
   1   -290.7942314 -0.290794E+03  0.428E-03    0.80       0.0  T
   2   -290.7942298  0.160027E-05  0.345E-03    0.80       2.1  T
   3   -290.7942332 -0.338934E-05  0.204E-03    0.80       3.5  T
   4   -290.7942352 -0.203706E-05  0.838E-04    0.80       8.5  T
   5   -290.7942354 -0.169345E-06  0.357E-04    0.80      19.9  T
   6   -290.7942354 -0.695843E-07  0.174E-04    0.80      40.8  T
   7   -290.7942354 -0.112245E-07  0.101E-04    0.80      70.5  T
     SCC iter.                  ...        0 min,  0.268 sec
     gradient                   ...        0 min,  0.044 sec
 * total energy  :  -287.3927229 Eh     change       -0.2159977E-03 Eh
   gradient norm :     0.0069517 Eh/α   predicted    -0.1502870E-03 ( -30.42%)
   displ. norm   :     0.4773603 α      lambda       -0.4398383E-03
   maximum displ.:     0.1610617 α      in ANC's #19, #1, #2, ...

........................................................................
.............................. CYCLE   97 ..............................
........................................................................

 iter      E             dE          RMSdq      gap      omega  full diag
   1   -290.7922872 -0.290792E+03  0.618E-03    0.80       0.0  T
   2   -290.7922890 -0.183369E-05  0.401E-03    0.80       1.8  T
   3   -290.7922920 -0.298280E-05  0.274E-03    0.80       2.6  T
   4   -290.7922950 -0.303093E-05  0.117E-03    0.80       6.1  T
   5   -290.7922955 -0.525141E-06  0.452E-04    0.80      15.7  T
   6   -290.7922956 -0.535999E-07  0.319E-04    0.80      22.2  T
   7   -290.7922956 -0.708373E-07  0.148E-04    0.80      47.9  T
   8   -290.7922957 -0.108161E-07  0.359E-05    0.80     197.5  T
     SCC iter.                  ...        0 min,  0.283 sec
     gradient                   ...        0 min,  0.037 sec
 * total energy  :  -287.3930419 Eh     change       -0.3190064E-03 Eh
   gradient norm :     0.0105901 Eh/α   predicted    -0.2700344E-03 ( -15.35%)
   displ. norm   :     0.5250531 α      lambda       -0.5143930E-03
   maximum displ.:     0.1855115 α      in ANC's #1, #19, #2, ...

........................................................................
.............................. CYCLE   98 ..............................
........................................................................

 iter      E             dE          RMSdq      gap      omega  full diag
   1   -290.7920656 -0.290792E+03  0.669E-03    0.80       0.0  T
   2   -290.7920644  0.114914E-05  0.488E-03    0.80       1.5  T
   3   -290.7920692 -0.477181E-05  0.345E-03    0.80       2.1  T
   4   -290.7920742 -0.500043E-05  0.126E-03    0.80       5.6  T
   5   -290.7920747 -0.542836E-06  0.598E-04    0.80      11.8  T
   6   -290.7920749 -0.179274E-06  0.334E-04    0.80      21.2  T
   7   -290.7920750 -0.731418E-07  0.145E-04    0.80      49.0  T
   8   -290.7920750 -0.103587E-07  0.401E-05    0.80     176.9  T
     SCC iter.                  ...        0 min,  0.288 sec
     gradient                   ...        0 min,  0.043 sec
 * total energy  :  -287.3934331 Eh     change       -0.3912269E-03 Eh
   gradient norm :     0.0110680 Eh/α   predicted    -0.3281266E-03 ( -16.13%)
   displ. norm   :     0.4842594 α      lambda       -0.5763923E-03
   maximum displ.:     0.1855389 α      in ANC's #1, #19, #2, ...

........................................................................
.............................. CYCLE   99 ..............................
........................................................................

 iter      E             dE          RMSdq      gap      omega  full diag
   1   -290.7965444 -0.290797E+03  0.650E-03    0.80       0.0  T
   2   -290.7965461 -0.168614E-05  0.370E-03    0.80       1.9  T
   3   -290.7965431  0.299124E-05  0.401E-03    0.80       1.8  T
   4   -290.7965502 -0.713883E-05  0.118E-03    0.80       6.0  T
   5   -290.7965505 -0.254495E-06  0.641E-04    0.80      11.1  T
   6   -290.7965507 -0.271372E-06  0.253E-04    0.80      28.0  T
   7   -290.7965508 -0.117906E-07  0.156E-04    0.80      45.5  T
   8   -290.7965508 -0.172503E-07  0.457E-05    0.80     155.1  T
     SCC iter.                  ...        0 min,  0.302 sec
     gradient                   ...        0 min,  0.055 sec
 * total energy  :  -287.3938592 Eh     change       -0.4260893E-03 Eh
   gradient norm :     0.0074115 Eh/α   predicted    -0.3557860E-03 ( -16.50%)
   displ. norm   :     0.4882833 α      lambda       -0.5040498E-03
   maximum displ.:     0.1995074 α      in ANC's #1, #2, #19, ...

........................................................................
.............................. CYCLE  100 ..............................
........................................................................

 iter      E             dE          RMSdq      gap      omega  full diag
   1   -290.8003769 -0.290800E+03  0.714E-03    0.81       0.0  T
   2   -290.8003808 -0.394319E-05  0.422E-03    0.81       1.7  T
   3   -290.8003806  0.256023E-06  0.356E-03    0.81       2.0  T
   4   -290.8003874 -0.686561E-05  0.152E-03    0.81       4.7  T
   5   -290.8003887 -0.123205E-05  0.418E-04    0.81      17.0  T
   6   -290.8003887 -0.394022E-07  0.155E-04    0.81      45.6  T
   7   -290.8003887 -0.215942E-08  0.700E-05    0.81     101.2  T
     SCC iter.                  ...        0 min,  0.228 sec
     gradient                   ...        0 min,  0.036 sec
 * total energy  :  -287.3941903 Eh     change       -0.3310420E-03 Eh
   gradient norm :     0.0092006 Eh/α   predicted    -0.3121173E-03 (  -5.72%)
   displ. norm   :     0.4622028 α      lambda       -0.4227072E-03
   maximum displ.:     0.1962357 α      in ANC's #1, #2, #15, ...

........................................................................
.............................. CYCLE  101 ..............................
........................................................................

 iter      E             dE          RMSdq      gap      omega  full diag
   1   -290.8006074 -0.290801E+03  0.593E-03    0.82       0.0  T
   2   -290.8006135 -0.609230E-05  0.262E-03    0.82       2.7  T
   3   -290.8006136 -0.544458E-07  0.173E-03    0.82       4.1  T
   4   -290.8006128  0.787664E-06  0.154E-03    0.82       4.6  T
   5   -290.8006144 -0.159088E-05  0.404E-04    0.82      17.5  T
   6   -290.8006144 -0.718103E-07  0.139E-04    0.82      51.2  T
   7   -290.8006144  0.353435E-08  0.126E-04    0.82      56.3  T
     SCC iter.                  ...        0 min,  0.233 sec
     gradient                   ...        0 min,  0.035 sec
 * total energy  :  -287.3944895 Eh     change       -0.2992339E-03 Eh
   gradient norm :     0.0070997 Eh/α   predicted    -0.2565096E-03 ( -14.28%)
   displ. norm   :     0.4657323 α      lambda       -0.3662011E-03
   maximum displ.:     0.2036979 α      in ANC's #1, #2, #15, ...

........................................................................
.............................. CYCLE  102 ..............................
........................................................................

 iter      E             dE          RMSdq      gap      omega  full diag
   1   -290.7973473 -0.290797E+03  0.628E-03    0.82       0.0  T
   2   -290.7973394  0.788103E-05  0.536E-03    0.81       1.3  T
   3   -290.7973511 -0.117001E-04  0.409E-03    0.82       1.7  T
   4   -290.7973596 -0.852758E-05  0.120E-03    0.81       5.9  T
   5   -290.7973597 -0.964686E-07  0.492E-04    0.81      14.4  T
   6   -290.7973598 -0.879787E-07  0.198E-04    0.81      35.8  T
   7   -290.7973598  0.221257E-08  0.135E-04    0.81      52.5  T
     SCC iter.                  ...        0 min,  0.255 sec
     gradient                   ...        0 min,  0.053 sec
 * total energy  :  -287.3947427 Eh     change       -0.2532327E-03 Eh
   gradient norm :     0.0068332 Eh/α   predicted    -0.2228191E-03 ( -12.01%)
   displ. norm   :     0.4179973 α      lambda       -0.3946837E-03
   maximum displ.:     0.1813937 α      in ANC's #1, #2, #15, ...

........................................................................
.............................. CYCLE  103 ..............................
........................................................................

 iter      E             dE          RMSdq      gap      omega  full diag
   1   -290.8024250 -0.290802E+03  0.641E-03    0.83       0.0  T
   2   -290.8024304 -0.543367E-05  0.317E-03    0.83       2.2  T
   3   -290.8024301  0.269074E-06  0.214E-03    0.83       3.3  T
   4   -290.8024286  0.150680E-05  0.204E-03    0.83       3.5  T
   5   -290.8024313 -0.265866E-05  0.359E-04    0.83      19.8  T
   6   -290.8024313 -0.614177E-07  0.141E-04    0.83      50.4  T
   7   -290.8024313 -0.366157E-08  0.101E-04    0.83      70.1  T
     SCC iter.                  ...        0 min,  0.226 sec
     gradient                   ...        0 min,  0.036 sec
 * total energy  :  -287.3949320 Eh     change       -0.1892985E-03 Eh
   gradient norm :     0.0108011 Eh/α   predicted    -0.2318248E-03 (  22.47%)
   displ. norm   :     0.5058930 α      lambda       -0.4085499E-03
   maximum displ.:     0.2229313 α      in ANC's #1, #2, #15, ...

........................................................................
.............................. CYCLE  104 ..............................
........................................................................

 iter      E             dE          RMSdq      gap      omega  full diag
   1   -290.7929773 -0.290793E+03  0.787E-03    0.84       0.0  T
   2   -290.7929795 -0.215369E-05  0.476E-03    0.84       1.5  T
   3   -290.7929755  0.397468E-05  0.428E-03    0.84       1.7  T
   4   -290.7929846 -0.910617E-05  0.207E-03    0.84       3.4  T
   5   -290.7929865 -0.186269E-05  0.412E-04    0.84      17.2  T
   6   -290.7929864  0.235318E-07  0.314E-04    0.84      22.6  T
   7   -290.7929865 -0.524842E-07  0.188E-04    0.84      37.8  T
   8   -290.7929865 -0.235224E-07  0.361E-05    0.84     196.5  T
     SCC iter.                  ...        0 min,  0.317 sec
     gradient                   ...        0 min,  0.041 sec
 * total energy  :  -287.3951076 Eh     change       -0.1755844E-03 Eh
   gradient norm :     0.0083455 Eh/α   predicted    -0.2565597E-03 (  46.12%)
   displ. norm   :     0.1742159 α      lambda       -0.2586210E-03
   maximum displ.:     0.0710962 α      in ANC's #1, #19, #8, ...

........................................................................
.............................. CYCLE  105 ..............................
........................................................................

 iter      E             dE          RMSdq      gap      omega  full diag
   1   -290.7959877 -0.290796E+03  0.411E-03    0.84       0.0  T
   2   -290.7959801  0.759828E-05  0.418E-03    0.83       1.7  T
   3   -290.7959905 -0.104406E-04  0.225E-03    0.84       3.1  T
   4   -290.7959930 -0.243574E-05  0.809E-04    0.84       8.8  T
   5   -290.7959929  0.409720E-07  0.357E-04    0.84      19.9  T
   6   -290.7959930 -0.827021E-07  0.159E-04    0.84      44.7  T
   7   -290.7959930 -0.170712E-07  0.885E-05    0.84      80.1  T
     SCC iter.                  ...        0 min,  0.244 sec
     gradient                   ...        0 min,  0.052 sec
 * total energy  :  -287.3953091 Eh     change       -0.2015009E-03 Eh
   gradient norm :     0.0053219 Eh/α   predicted    -0.1332375E-03 ( -33.88%)
   displ. norm   :     0.4295671 α      lambda       -0.3646916E-03
   maximum displ.:     0.1865069 α      in ANC's #1, #8, #9, ...

........................................................................
.............................. CYCLE  106 ..............................
........................................................................

 iter      E             dE          RMSdq      gap      omega  full diag
   1   -290.8001729 -0.290800E+03  0.576E-03    0.84       0.0  T
   2   -290.8001667  0.616314E-05  0.468E-03    0.84       1.5  T
   3   -290.8001744 -0.768133E-05  0.351E-03    0.84       2.0  T
   4   -290.8001803 -0.591150E-05  0.115E-03    0.84       6.2  T
   5   -290.8001801  0.262631E-06  0.704E-04    0.84      10.1  T
   6   -290.8001804 -0.368165E-06  0.190E-04    0.84      37.3  T
   7   -290.8001804 -0.251873E-08  0.123E-04    0.84      57.4  T
     SCC iter.                  ...        0 min,  0.244 sec
     gradient                   ...        0 min,  0.043 sec
 * total energy  :  -287.3955942 Eh     change       -0.2850537E-03 Eh
   gradient norm :     0.0048294 Eh/α   predicted    -0.2159982E-03 ( -24.23%)
   displ. norm   :     0.5892377 α      lambda       -0.3600802E-03
   maximum displ.:     0.2594190 α      in ANC's #1, #2, #9, ...

........................................................................
.............................. CYCLE  107 ..............................
........................................................................

 iter      E             dE          RMSdq      gap      omega  full diag
   1   -290.8011478 -0.290801E+03  0.541E-03    0.85       0.0  T
   2   -290.8011426  0.518176E-05  0.449E-03    0.85       1.6  T
   3   -290.8011504 -0.784861E-05  0.325E-03    0.85       2.2  T
   4   -290.8011553 -0.485679E-05  0.109E-03    0.85       6.5  T
   5   -290.8011550  0.240842E-06  0.744E-04    0.85       9.5  T
   6   -290.8011554 -0.321805E-06  0.286E-04    0.85      24.8  T
   7   -290.8011554 -0.390488E-07  0.137E-04    0.85      51.8  T
   8   -290.8011554 -0.101500E-07  0.347E-05    0.85     204.4  T
     SCC iter.                  ...        0 min,  0.266 sec
     gradient                   ...        0 min,  0.042 sec
 * total energy  :  -287.3959048 Eh     change       -0.3106142E-03 Eh
   gradient norm :     0.0065740 Eh/α   predicted    -0.2425514E-03 ( -21.91%)
   displ. norm   :     0.6660222 α      lambda       -0.4311559E-03
   maximum displ.:     0.2817964 α      in ANC's #1, #9, #4, ...

........................................................................
.............................. CYCLE  108 ..............................
........................................................................

 iter      E             dE          RMSdq      gap      omega  full diag
   1   -290.8009660 -0.290801E+03  0.515E-03    0.86       0.0  T
   2   -290.8009643  0.168214E-05  0.369E-03    0.86       1.9  T
   3   -290.8009675 -0.320261E-05  0.313E-03    0.86       2.3  T
   4   -290.8009717 -0.414110E-05  0.948E-04    0.86       7.5  T
   5   -290.8009714  0.235355E-06  0.736E-04    0.86       9.6  T
   6   -290.8009717 -0.308761E-06  0.301E-04    0.86      23.5  T
   7   -290.8009718 -0.613980E-07  0.139E-04    0.86      50.9  T
   8   -290.8009718 -0.967867E-08  0.320E-05    0.86     221.8  T
     SCC iter.                  ...        0 min,  0.287 sec
     gradient                   ...        0 min,  0.037 sec
 * total energy  :  -287.3962710 Eh     change       -0.3661883E-03 Eh
   gradient norm :     0.0066672 Eh/α   predicted    -0.3112073E-03 ( -15.01%)
   displ. norm   :     0.6762459 α      lambda       -0.4193183E-03
   maximum displ.:     0.2802193 α      in ANC's #1, #9, #4, ...

........................................................................
.............................. CYCLE  109 ..............................
........................................................................

 iter      E             dE          RMSdq      gap      omega  full diag
   1   -290.7986368 -0.290799E+03  0.474E-03    0.88       0.0  T
   2   -290.7986359  0.940168E-06  0.331E-03    0.88       2.1  T
   3   -290.7986376 -0.173575E-05  0.312E-03    0.88       2.3  T
   4   -290.7986421 -0.447421E-05  0.864E-04    0.88       8.2  T
   5   -290.7986420  0.130214E-06  0.576E-04    0.88      12.3  T
   6   -290.7986421 -0.126376E-06  0.327E-04    0.88      21.7  T
   7   -290.7986422 -0.826232E-07  0.124E-04    0.88      57.3  T
   8   -290.7986422 -0.681302E-08  0.328E-05    0.88     216.3  T
     SCC iter.                  ...        0 min,  0.283 sec
     gradient                   ...        0 min,  0.038 sec
 * total energy  :  -287.3966158 Eh     change       -0.3447807E-03 Eh
   gradient norm :     0.0070552 Eh/α   predicted    -0.3055397E-03 ( -11.38%)
   displ. norm   :     0.5819274 α      lambda       -0.3836635E-03
   maximum displ.:     0.2139367 α      in ANC's #1, #19, #9, ...

........................................................................
.............................. CYCLE  110 ..............................
........................................................................

 iter      E             dE          RMSdq      gap      omega  full diag
   1   -290.7989868 -0.290799E+03  0.438E-03    0.89       0.0  T
   2   -290.7989881 -0.132248E-05  0.249E-03    0.89       2.8  T
   3   -290.7989874  0.709429E-06  0.243E-03    0.89       2.9  T
   4   -290.7989905 -0.313339E-05  0.797E-04    0.89       8.9  T
   5   -290.7989906 -0.142071E-06  0.339E-04    0.89      20.9  T
   6   -290.7989906  0.111459E-08  0.213E-04    0.89      33.3  T
   7   -290.7989907 -0.252097E-07  0.122E-04    0.89      58.2  T
   8   -290.7989907 -0.976445E-08  0.220E-05    0.89     321.6  T
     SCC iter.                  ...        0 min,  0.288 sec
     gradient                   ...        0 min,  0.054 sec
 * total energy  :  -287.3969060 Eh     change       -0.2902382E-03 Eh
   gradient norm :     0.0063124 Eh/α   predicted    -0.2567982E-03 ( -11.52%)
   displ. norm   :     0.6222010 α      lambda       -0.3663792E-03
   maximum displ.:     0.2593735 α      in ANC's #1, #9, #4, ...

........................................................................
.............................. CYCLE  111 ..............................
........................................................................

 iter      E             dE          RMSdq      gap      omega  full diag
   1   -290.7933374 -0.290793E+03  0.609E-03    0.90       0.0  T
   2   -290.7933309  0.652870E-05  0.506E-03    0.90       1.4  T
   3   -290.7933399 -0.907821E-05  0.401E-03    0.90       1.8  T
   4   -290.7933479 -0.793662E-05  0.119E-03    0.90       6.0  T
   5   -290.7933479 -0.189976E-08  0.488E-04    0.90      14.5  T
   6   -290.7933479 -0.161448E-07  0.356E-04    0.90      19.9  T
   7   -290.7933480 -0.899794E-07  0.139E-04    0.90      50.8  T
   8   -290.7933480 -0.117368E-07  0.315E-05    0.90     225.3  T
     SCC iter.                  ...        0 min,  0.267 sec
     gradient                   ...        0 min,  0.037 sec
 * total energy  :  -287.3971595 Eh     change       -0.2535127E-03 Eh
   gradient norm :     0.0106313 Eh/α   predicted    -0.2541096E-03 (   0.24%)
   displ. norm   :     0.4571768 α      lambda       -0.4504675E-03
   maximum displ.:     0.1529488 α      in ANC's #6, #10, #19, ...

........................................................................
.............................. CYCLE  112 ..............................
........................................................................

 iter      E             dE          RMSdq      gap      omega  full diag
   1   -290.7998260 -0.290800E+03  0.577E-03    0.90       0.0  T
   2   -290.7998297 -0.368801E-05  0.339E-03    0.90       2.1  T
   3   -290.7998308 -0.113226E-05  0.187E-03    0.90       3.8  T
   4   -290.7998290  0.181795E-05  0.188E-03    0.90       3.8  T
   5   -290.7998317 -0.263769E-05  0.681E-04    0.90      10.4  T
   6   -290.7998318 -0.180335E-06  0.131E-04    0.90      53.9  T
   7   -290.7998319 -0.123862E-08  0.547E-05    0.90     129.6  T
     SCC iter.                  ...        0 min,  0.252 sec
     gradient                   ...        0 min,  0.062 sec
 * total energy  :  -287.3974326 Eh     change       -0.2731086E-03 Eh
   gradient norm :     0.0106835 Eh/α   predicted    -0.2723146E-03 (  -0.29%)
   displ. norm   :     0.5115758 α      lambda       -0.3413548E-03
   maximum displ.:     0.1919581 α      in ANC's #1, #6, #10, ...

........................................................................
.............................. CYCLE  113 ..............................
........................................................................

 iter      E             dE          RMSdq      gap      omega  full diag
   1   -290.7972236 -0.290797E+03  0.591E-03    0.90       0.0  T
   2   -290.7972153  0.828247E-05  0.555E-03    0.90       1.3  T
   3   -290.7972288 -0.134726E-04  0.322E-03    0.90       2.2  T
   4   -290.7972337 -0.494630E-05  0.114E-03    0.90       6.2  T
   5   -290.7972334  0.301838E-06  0.700E-04    0.90      10.1  T
   6   -290.7972338 -0.365848E-06  0.236E-04    0.90      30.1  T
   7   -290.7972338 -0.220153E-07  0.128E-04    0.90      55.3  T
   8   -290.7972338 -0.125620E-07  0.298E-05    0.90     237.6  T
     SCC iter.                  ...        0 min,  0.254 sec
     gradient                   ...        0 min,  0.043 sec
 * total energy  :  -287.3976829 Eh     change       -0.2502891E-03 Eh
   gradient norm :     0.0086859 Eh/α   predicted    -0.2153545E-03 ( -13.96%)
   displ. norm   :     0.4850865 α      lambda       -0.4002593E-03
   maximum displ.:     0.1759593 α      in ANC's #1, #10, #6, ...

........................................................................
.............................. CYCLE  114 ..............................
........................................................................

 iter      E             dE          RMSdq      gap      omega  full diag
   1   -290.7983819 -0.290798E+03  0.532E-03    0.90       0.0  T
   2   -290.7983684  0.134927E-04  0.568E-03    0.90       1.2  T
   3   -290.7983877 -0.192264E-04  0.279E-03    0.90       2.5  T
   4   -290.7983913 -0.362409E-05  0.931E-04    0.90       7.6  T
   5   -290.7983912  0.425134E-07  0.426E-04    0.90      16.6  T
   6   -290.7983913 -0.888362E-07  0.223E-04    0.90      31.7  T
   7   -290.7983914 -0.218972E-07  0.107E-04    0.90      66.2  T
   8   -290.7983914 -0.738703E-08  0.266E-05    0.90     266.0  T
     SCC iter.                  ...        0 min,  0.277 sec
     gradient                   ...        0 min,  0.044 sec
 * total energy  :  -287.3979848 Eh     change       -0.3019269E-03 Eh
   gradient norm :     0.0070989 Eh/α   predicted    -0.2472252E-03 ( -18.12%)
   displ. norm   :     0.5425507 α      lambda       -0.3937393E-03
   maximum displ.:     0.1772031 α      in ANC's #6, #10, #1, ...

........................................................................
.............................. CYCLE  115 ..............................
........................................................................

 iter      E             dE          RMSdq      gap      omega  full diag
   1   -290.7994957 -0.290799E+03  0.566E-03    0.91       0.0  T
   2   -290.7994907  0.503081E-05  0.459E-03    0.90       1.5  T
   3   -290.7994969 -0.626615E-05  0.345E-03    0.91       2.1  T
   4   -290.7995032 -0.624055E-05  0.947E-04    0.90       7.5  T
   5   -290.7995032 -0.205377E-07  0.392E-04    0.90      18.1  T
   6   -290.7995032 -0.199322E-07  0.290E-04    0.90      24.4  T
   7   -290.7995033 -0.617488E-07  0.103E-04    0.90      69.0  T
   8   -290.7995033 -0.513205E-08  0.217E-05    0.90     327.1  T
     SCC iter.                  ...        0 min,  0.272 sec
     gradient                   ...        0 min,  0.037 sec
 * total energy  :  -287.3982561 Eh     change       -0.2712358E-03 Eh
   gradient norm :     0.0103230 Eh/α   predicted    -0.2548250E-03 (  -6.05%)
   displ. norm   :     0.4717763 α      lambda       -0.4264838E-03
   maximum displ.:     0.1696935 α      in ANC's #6, #10, #1, ...

........................................................................
.............................. CYCLE  116 ..............................
........................................................................

 iter      E             dE          RMSdq      gap      omega  full diag
   1   -290.8040549 -0.290804E+03  0.750E-03    0.91       0.0  T
   2   -290.8040495  0.540301E-05  0.607E-03    0.90       1.2  T
   3   -290.8040582 -0.870515E-05  0.419E-03    0.91       1.7  T
   4   -290.8040655 -0.728923E-05  0.154E-03    0.91       4.6  T
   5   -290.8040660 -0.454199E-06  0.767E-04    0.91       9.2  T
   6   -290.8040663 -0.349293E-06  0.351E-04    0.91      20.2  T
   7   -290.8040664 -0.774144E-07  0.156E-04    0.91      45.6  T
   8   -290.8040664 -0.189947E-07  0.328E-05    0.91     216.3  T
     SCC iter.                  ...        0 min,  0.275 sec
     gradient                   ...        0 min,  0.041 sec
 * total energy  :  -287.3984911 Eh     change       -0.2349871E-03 Eh
   gradient norm :     0.0094918 Eh/α   predicted    -0.2607088E-03 (  10.95%)
   displ. norm   :     0.6128668 α      lambda       -0.3680454E-03
   maximum displ.:     0.2300300 α      in ANC's #1, #6, #9, ...

........................................................................
.............................. CYCLE  117 ..............................
........................................................................

 iter      E             dE          RMSdq      gap      omega  full diag
   1   -290.7943598 -0.290794E+03  0.671E-03    0.91       0.0  T
   2   -290.7943570  0.284252E-05  0.509E-03    0.91       1.4  T
   3   -290.7943608 -0.382891E-05  0.424E-03    0.91       1.7  T
   4   -290.7943688 -0.800056E-05  0.136E-03    0.91       5.2  T
   5   -290.7943689 -0.101905E-06  0.626E-04    0.91      11.3  T
   6   -290.7943690 -0.846602E-07  0.466E-04    0.91      15.2  T
   7   -290.7943692 -0.179468E-06  0.144E-04    0.91      49.3  T
   8   -290.7943692 -0.108091E-07  0.339E-05    0.91     209.3  T
     SCC iter.                  ...        0 min,  0.273 sec
     gradient                   ...        0 min,  0.037 sec
 * total energy  :  -287.3987054 Eh     change       -0.2143264E-03 Eh
   gradient norm :     0.0116723 Eh/α   predicted    -0.2531480E-03 (  18.11%)
   displ. norm   :     0.2160071 α      lambda       -0.3551449E-03
   maximum displ.:     0.0630017 α      in ANC's #6, #1, #9, ...

........................................................................
.............................. CYCLE  118 ..............................
........................................................................

 iter      E             dE          RMSdq      gap      omega  full diag
   1   -290.7982458 -0.290798E+03  0.629E-03    0.91       0.0  T
   2   -290.7982473 -0.152308E-05  0.347E-03    0.91       2.0  T
   3   -290.7982442  0.313725E-05  0.290E-03    0.91       2.4  T
   4   -290.7982466 -0.236917E-05  0.202E-03    0.91       3.5  T
   5   -290.7982494 -0.280800E-05  0.540E-04    0.91      13.1  T
   6   -290.7982494 -0.518587E-07  0.237E-04    0.91      29.9  T
   7   -290.7982494 -0.703557E-08  0.160E-04    0.91      44.4  T
   8   -290.7982495 -0.209042E-07  0.296E-05    0.91     239.9  T
     SCC iter.                  ...        0 min,  0.288 sec
     gradient                   ...        0 min,  0.039 sec
 * total energy  :  -287.3988517 Eh     change       -0.1462766E-03 Eh
   gradient norm :     0.0101023 Eh/α   predicted    -0.1858611E-03 (  27.06%)
   displ. norm   :     0.4176122 α      lambda       -0.2895652E-03
   maximum displ.:     0.1652633 α      in ANC's #6, #19, #10, ...

........................................................................
.............................. CYCLE  119 ..............................
........................................................................

 iter      E             dE          RMSdq      gap      omega  full diag
   1   -290.7975132 -0.290798E+03  0.596E-03    0.91       0.0  T
   2   -290.7975136 -0.342452E-06  0.402E-03    0.91       1.8  T
   3   -290.7975121  0.149995E-05  0.388E-03    0.91       1.8  T
   4   -290.7975197 -0.759306E-05  0.124E-03    0.91       5.7  T
   5   -290.7975198 -0.141657E-06  0.495E-04    0.91      14.3  T
   6   -290.7975199 -0.132597E-06  0.208E-04    0.91      34.0  T
   7   -290.7975199 -0.144084E-07  0.133E-04    0.91      53.3  T
   8   -290.7975200 -0.142537E-07  0.279E-05    0.91     254.3  T
     SCC iter.                  ...        0 min,  0.288 sec
     gradient                   ...        0 min,  0.039 sec
 * total energy  :  -287.3990056 Eh     change       -0.1539762E-03 Eh
   gradient norm :     0.0092240 Eh/α   predicted    -0.1700385E-03 (  10.43%)
   displ. norm   :     0.3151168 α      lambda       -0.3242909E-03
   maximum displ.:     0.1191655 α      in ANC's #6, #10, #1, ...

........................................................................
.............................. CYCLE  120 ..............................
........................................................................

 iter      E             dE          RMSdq      gap      omega  full diag
   1   -290.8007164 -0.290801E+03  0.629E-03    0.91       0.0  T
   2   -290.8007152  0.118731E-05  0.387E-03    0.91       1.8  T
   3   -290.8007054  0.982708E-05  0.475E-03    0.91       1.5  T
   4   -290.8007188 -0.134063E-04  0.962E-04    0.91       7.4  T
   5   -290.8007190 -0.199124E-06  0.307E-04    0.91      23.1  T
   6   -290.8007190  0.117078E-07  0.262E-04    0.91      27.1  T
   7   -290.8007190 -0.538322E-07  0.885E-05    0.91      80.1  T
   8   -290.8007190 -0.477894E-08  0.177E-05    0.91     399.4  T
     SCC iter.                  ...        0 min,  0.299 sec
     gradient                   ...        0 min,  0.039 sec
 * total energy  :  -287.3991340 Eh     change       -0.1283467E-03 Eh
   gradient norm :     0.0095034 Eh/α   predicted    -0.1782475E-03 (  38.88%)
   displ. norm   :     0.2816033 α      lambda       -0.3102317E-03
   maximum displ.:     0.1032328 α      in ANC's #1, #6, #4, ...
 * RMSD in coord.:     0.6942735 α      energy gain  -0.7543872E-02 Eh

generating ANC from exact Hessian ...
Using Lindh-Hessian (1995)
 Shifting diagonal of input Hessian by   1.011277375785747E-002
 Lowest  eigenvalues of input Hessian
    0.010000    0.010054    0.010060    0.000000    0.010077    0.000000
    0.000000    0.000000    0.000000    0.000000    0.010137    0.010184
    0.010222    0.010279    0.010283    0.010368    0.010405    0.010434
 Highest eigenvalues
    2.023044    2.080864    2.159610    2.177286    2.304515    2.345620
 

........................................................................
.............................. CYCLE  121 ..............................
........................................................................

 iter      E             dE          RMSdq      gap      omega  full diag
   1   -290.7991154 -0.290799E+03  0.623E-03    0.92       0.0  T
   2   -290.7991149  0.527779E-06  0.373E-03    0.91       1.9  T
   3   -290.7991095  0.538158E-05  0.433E-03    0.92       1.6  T
   4   -290.7991177 -0.820657E-05  0.110E-03    0.92       6.4  T
   5   -290.7991181 -0.403403E-06  0.487E-04    0.92      14.5  T
   6   -290.7991182 -0.131579E-06  0.275E-04    0.92      25.8  T
   7   -290.7991183 -0.491456E-07  0.123E-04    0.92      57.6  T
   8   -290.7991183 -0.119065E-07  0.251E-05    0.92     282.1  T
     SCC iter.                  ...        0 min,  0.264 sec
     gradient                   ...        0 min,  0.038 sec
 * total energy  :  -287.3992915 Eh     change       -0.1575248E-03 Eh
   gradient norm :     0.0072742 Eh/α   predicted     0.0000000E+00 (-100.00%)
   displ. norm   :     0.0879599 α      lambda       -0.1950815E-03
   maximum displ.:     0.0410840 α      in ANC's #38, #5, #6, ...

........................................................................
.............................. CYCLE  122 ..............................
........................................................................

 iter      E             dE          RMSdq      gap      omega  full diag
   1   -290.8017580 -0.290802E+03  0.307E-03    0.92       0.0  T
   2   -290.8017572  0.812952E-06  0.206E-03    0.92       3.4  T
   3   -290.8017554  0.186572E-05  0.237E-03    0.92       3.0  T
   4   -290.8017593 -0.396421E-05  0.549E-04    0.92      12.9  T
   5   -290.8017593 -0.164368E-07  0.222E-04    0.92      32.0  T
   6   -290.8017593  0.337081E-09  0.150E-04    0.92      47.4  T
   7   -290.8017594 -0.147559E-07  0.441E-05    0.92     160.7  T
     SCC iter.                  ...        0 min,  0.264 sec
     gradient                   ...        0 min,  0.039 sec
 * total energy  :  -287.3994380 Eh     change       -0.1465120E-03 Eh
   gradient norm :     0.0022662 Eh/α   predicted    -0.9862003E-04 ( -32.69%)
   displ. norm   :     0.2174308 α      lambda       -0.2464965E-03
   maximum displ.:     0.1046966 α      in ANC's #38, #5, #6, ...

........................................................................
.............................. CYCLE  123 ..............................
........................................................................

 iter      E             dE          RMSdq      gap      omega  full diag
   1   -290.8038663 -0.290804E+03  0.368E-03    0.91       0.0  T
   2   -290.8038670 -0.720526E-06  0.191E-03    0.91       3.7  T
   3   -290.8038661  0.929426E-06  0.144E-03    0.91       4.9  T
   4   -290.8038667 -0.584460E-06  0.911E-04    0.91       7.8  T
   5   -290.8038673 -0.589317E-06  0.183E-04    0.91      38.7  T
   6   -290.8038673 -0.972585E-08  0.977E-05    0.91      72.5  T
     SCC iter.                  ...        0 min,  0.215 sec
     gradient                   ...        0 min,  0.038 sec
 * total energy  :  -287.3996071 Eh     change       -0.1690640E-03 Eh
   gradient norm :     0.0053497 Eh/α   predicted    -0.1290876E-03 ( -23.65%)
   displ. norm   :     0.3413249 α      lambda       -0.2822286E-03
   maximum displ.:     0.1586486 α      in ANC's #38, #6, #5, ...

........................................................................
.............................. CYCLE  124 ..............................
........................................................................

 iter      E             dE          RMSdq      gap      omega  full diag
   1   -290.8040833 -0.290804E+03  0.405E-03    0.92       0.0  T
   2   -290.8040840 -0.662363E-06  0.244E-03    0.92       2.9  T
   3   -290.8040826  0.142646E-05  0.224E-03    0.92       3.2  T
   4   -290.8040863 -0.370369E-05  0.991E-04    0.92       7.2  T
   5   -290.8040867 -0.429448E-06  0.315E-04    0.92      22.5  T
   6   -290.8040867  0.122928E-07  0.309E-04    0.92      23.0  T
   7   -290.8040868 -0.655261E-07  0.777E-05    0.92      91.3  T
   8   -290.8040868 -0.943260E-09  0.207E-05    0.92     343.1  T
     SCC iter.                  ...        0 min,  0.285 sec
     gradient                   ...        0 min,  0.040 sec
 * total energy  :  -287.3998030 Eh     change       -0.1959401E-03 Eh
   gradient norm :     0.0097005 Eh/α   predicted    -0.1575704E-03 ( -19.58%)
   displ. norm   :     0.4269330 α      lambda       -0.3421050E-03
   maximum displ.:     0.1829335 α      in ANC's #38, #6, #5, ...

........................................................................
.............................. CYCLE  125 ..............................
........................................................................

 iter      E             dE          RMSdq      gap      omega  full diag
   1   -290.8021424 -0.290802E+03  0.373E-03    0.92       0.0  T
   2   -290.8021435 -0.107925E-05  0.202E-03    0.92       3.5  T
   3   -290.8021424  0.114077E-05  0.184E-03    0.92       3.8  T
   4   -290.8021445 -0.211536E-05  0.106E-03    0.92       6.7  T
   5   -290.8021451 -0.568136E-06  0.284E-04    0.92      24.9  T
   6   -290.8021451 -0.220530E-08  0.213E-04    0.92      33.3  T
   7   -290.8021451 -0.176566E-07  0.859E-05    0.92      82.5  T
   8   -290.8021451 -0.407033E-08  0.297E-05    0.92     238.6  T
     SCC iter.                  ...        0 min,  0.286 sec
     gradient                   ...        0 min,  0.063 sec
 * total energy  :  -287.4000736 Eh     change       -0.2706196E-03 Eh
   gradient norm :     0.0109457 Eh/α   predicted    -0.2022314E-03 ( -25.27%)
   displ. norm   :     0.4929573 α      lambda       -0.5169003E-03
   maximum displ.:     0.1817658 α      in ANC's #6, #5, #38, ...

........................................................................
.............................. CYCLE  126 ..............................
........................................................................

 iter      E             dE          RMSdq      gap      omega  full diag
   1   -290.8001114 -0.290800E+03  0.675E-03    0.92       0.0  T
   2   -290.8001088  0.255536E-05  0.473E-03    0.92       1.5  T
   3   -290.8001119 -0.310846E-05  0.389E-03    0.92       1.8  T
   4   -290.8001172 -0.531762E-05  0.147E-03    0.92       4.8  T
   5   -290.8001181 -0.812747E-06  0.585E-04    0.92      12.1  T
   6   -290.8001182 -0.190719E-06  0.293E-04    0.92      24.2  T
   7   -290.8001183 -0.421671E-07  0.142E-04    0.92      49.9  T
   8   -290.8001183 -0.137005E-07  0.361E-05    0.92     196.2  T
     SCC iter.                  ...        0 min,  0.276 sec
     gradient                   ...        0 min,  0.047 sec
 * total energy  :  -287.4004506 Eh     change       -0.3769972E-03 Eh
   gradient norm :     0.0063222 Eh/α   predicted    -0.3212903E-03 ( -14.78%)
   displ. norm   :     0.4596388 α      lambda       -0.3774258E-03
   maximum displ.:     0.1789082 α      in ANC's #6, #5, #2, ...

........................................................................
.............................. CYCLE  127 ..............................
........................................................................

 iter      E             dE          RMSdq      gap      omega  full diag
   1   -290.8001269 -0.290800E+03  0.655E-03    0.93       0.0  T
   2   -290.8001264  0.557133E-06  0.434E-03    0.93       1.6  T
   3   -290.8001298 -0.340572E-05  0.361E-03    0.93       2.0  T
   4   -290.8001349 -0.511442E-05  0.121E-03    0.93       5.9  T
   5   -290.8001352 -0.299908E-06  0.595E-04    0.93      11.9  T
   6   -290.8001353 -0.141015E-06  0.357E-04    0.93      19.9  T
   7   -290.8001354 -0.970654E-07  0.140E-04    0.93      50.7  T
   8   -290.8001354 -0.714203E-08  0.372E-05    0.93     190.4  T
     SCC iter.                  ...        0 min,  0.268 sec
     gradient                   ...        0 min,  0.053 sec
 * total energy  :  -287.4006850 Eh     change       -0.2343044E-03 Eh
   gradient norm :     0.0067967 Eh/α   predicted    -0.2285847E-03 (  -2.44%)
   displ. norm   :     0.5049468 α      lambda       -0.3281467E-03
   maximum displ.:     0.1983110 α      in ANC's #5, #6, #2, ...

........................................................................
.............................. CYCLE  128 ..............................
........................................................................

 iter      E             dE          RMSdq      gap      omega  full diag
   1   -290.7993594 -0.290799E+03  0.484E-03    0.93       0.0  T
   2   -290.7993589  0.497516E-06  0.350E-03    0.93       2.0  T
   3   -290.7993615 -0.258314E-05  0.249E-03    0.93       2.8  T
   4   -290.7993636 -0.210953E-05  0.890E-04    0.93       8.0  T
   5   -290.7993638 -0.237215E-06  0.537E-04    0.93      13.2  T
   6   -290.7993640 -0.142974E-06  0.262E-04    0.93      27.0  T
   7   -290.7993640 -0.479583E-07  0.103E-04    0.93      68.6  T
   8   -290.7993640 -0.413615E-08  0.303E-05    0.93     233.6  T
     SCC iter.                  ...        0 min,  0.279 sec
     gradient                   ...        0 min,  0.042 sec
 * total energy  :  -287.4009151 Eh     change       -0.2301270E-03 Eh
   gradient norm :     0.0061888 Eh/α   predicted    -0.2059077E-03 ( -10.52%)
   displ. norm   :     0.3939027 α      lambda       -0.2981829E-03
   maximum displ.:     0.1671466 α      in ANC's #5, #6, #2, ...

........................................................................
.............................. CYCLE  129 ..............................
........................................................................

 iter      E             dE          RMSdq      gap      omega  full diag
   1   -290.8039544 -0.290804E+03  0.482E-03    0.93       0.0  T
   2   -290.8039521  0.231309E-05  0.425E-03    0.93       1.7  T
   3   -290.8039573 -0.521805E-05  0.248E-03    0.93       2.9  T
   4   -290.8039595 -0.225704E-05  0.106E-03    0.93       6.7  T
   5   -290.8039597 -0.164471E-06  0.614E-04    0.93      11.5  T
   6   -290.8039599 -0.258580E-06  0.198E-04    0.93      35.9  T
   7   -290.8039600 -0.130506E-07  0.127E-04    0.93      56.0  T
     SCC iter.                  ...        0 min,  0.290 sec
     gradient                   ...        0 min,  0.043 sec
 * total energy  :  -287.4011310 Eh     change       -0.2158874E-03 Eh
   gradient norm :     0.0067131 Eh/α   predicted    -0.1722247E-03 ( -20.22%)
   displ. norm   :     0.6349641 α      lambda       -0.4033035E-03
   maximum displ.:     0.2661528 α      in ANC's #5, #6, #2, ...

........................................................................
.............................. CYCLE  130 ..............................
........................................................................

 iter      E             dE          RMSdq      gap      omega  full diag
   1   -290.8011743 -0.290801E+03  0.767E-03    0.93       0.0  T
   2   -290.8011748 -0.500574E-06  0.478E-03    0.93       1.5  T
   3   -290.8011698  0.503388E-05  0.521E-03    0.93       1.4  T
   4   -290.8011856 -0.158728E-04  0.137E-03    0.93       5.2  T
   5   -290.8011857 -0.429967E-07  0.616E-04    0.93      11.5  T
   6   -290.8011857  0.303209E-07  0.518E-04    0.93      13.7  T
   7   -290.8011859 -0.227956E-06  0.154E-04    0.93      45.9  T
   8   -290.8011859 -0.123051E-07  0.426E-05    0.93     166.5  T
     SCC iter.                  ...        0 min,  0.310 sec
     gradient                   ...        0 min,  0.042 sec
 * total energy  :  -287.4013341 Eh     change       -0.2031656E-03 Eh
   gradient norm :     0.0106491 Eh/α   predicted    -0.2829618E-03 (  39.28%)
   displ. norm   :     0.3678811 α      lambda       -0.4503172E-03
   maximum displ.:     0.1528824 α      in ANC's #5, #6, #30, ...

........................................................................
.............................. CYCLE  131 ..............................
........................................................................

 iter      E             dE          RMSdq      gap      omega  full diag
   1   -290.8074306 -0.290807E+03  0.634E-03    0.94       0.0  T
   2   -290.8074316 -0.956751E-06  0.443E-03    0.94       1.6  T
   3   -290.8074319 -0.340480E-06  0.389E-03    0.94       1.8  T
   4   -290.8074421 -0.101424E-04  0.140E-03    0.94       5.1  T
   5   -290.8074422 -0.111182E-06  0.669E-04    0.94      10.6  T
   6   -290.8074423 -0.179269E-06  0.393E-04    0.94      18.1  T
   7   -290.8074424 -0.105121E-06  0.101E-04    0.94      70.5  T
   8   -290.8074425 -0.456487E-08  0.243E-05    0.94     291.4  T
     SCC iter.                  ...        0 min,  0.299 sec
     gradient                   ...        0 min,  0.039 sec
 * total energy  :  -287.4016087 Eh     change       -0.2745716E-03 Eh
   gradient norm :     0.0087665 Eh/α   predicted    -0.2556315E-03 (  -6.90%)
   displ. norm   :     0.4915096 α      lambda       -0.3215231E-03
   maximum displ.:     0.2141786 α      in ANC's #5, #6, #28, ...

........................................................................
.............................. CYCLE  132 ..............................
........................................................................

 iter      E             dE          RMSdq      gap      omega  full diag
   1   -290.8062192 -0.290806E+03  0.453E-03    0.94       0.0  T
   2   -290.8062153  0.388826E-05  0.388E-03    0.94       1.8  T
   3   -290.8062199 -0.456494E-05  0.265E-03    0.94       2.7  T
   4   -290.8062230 -0.311650E-05  0.866E-04    0.94       8.2  T
   5   -290.8062231 -0.134794E-06  0.413E-04    0.94      17.2  T
   6   -290.8062232 -0.494360E-07  0.278E-04    0.94      25.5  T
   7   -290.8062232 -0.573481E-07  0.823E-05    0.94      86.1  T
   8   -290.8062233 -0.344386E-08  0.217E-05    0.94     326.9  T
     SCC iter.                  ...        0 min,  0.307 sec
     gradient                   ...        0 min,  0.043 sec
 * total energy  :  -287.4018770 Eh     change       -0.2683115E-03 Eh
   gradient norm :     0.0078627 Eh/α   predicted    -0.1995995E-03 ( -25.61%)
   displ. norm   :     0.6097225 α      lambda       -0.4246417E-03
   maximum displ.:     0.2686526 α      in ANC's #5, #6, #28, ...

........................................................................
.............................. CYCLE  133 ..............................
........................................................................

 iter      E             dE          RMSdq      gap      omega  full diag
   1   -290.8043586 -0.290804E+03  0.472E-03    0.93       0.0  T
   2   -290.8043577  0.900762E-06  0.318E-03    0.93       2.2  T
   3   -290.8043556  0.216740E-05  0.318E-03    0.93       2.2  T
   4   -290.8043617 -0.613415E-05  0.859E-04    0.93       8.3  T
   5   -290.8043619 -0.219297E-06  0.272E-04    0.93      26.1  T
   6   -290.8043619 -0.936967E-08  0.113E-04    0.93      62.9  T
   7   -290.8043619  0.271217E-08  0.970E-05    0.93      73.0  T
     SCC iter.                  ...        0 min,  0.270 sec
     gradient                   ...        0 min,  0.045 sec
 * total energy  :  -287.4021969 Eh     change       -0.3198536E-03 Eh
   gradient norm :     0.0060879 Eh/α   predicted    -0.2912577E-03 (  -8.94%)
   displ. norm   :     0.6368975 α      lambda       -0.3216206E-03
   maximum displ.:     0.2865786 α      in ANC's #5, #6, #28, ...

........................................................................
.............................. CYCLE  134 ..............................
........................................................................

 iter      E             dE          RMSdq      gap      omega  full diag
   1   -290.7989692 -0.290799E+03  0.532E-03    0.93       0.0  T
   2   -290.7989692 -0.504980E-07  0.306E-03    0.93       2.3  T
   3   -290.7989626  0.663584E-05  0.369E-03    0.93       1.9  T
   4   -290.7989713 -0.871032E-05  0.868E-04    0.93       8.2  T
   5   -290.7989715 -0.257251E-06  0.373E-04    0.93      19.0  T
   6   -290.7989716 -0.373016E-07  0.224E-04    0.93      31.6  T
   7   -290.7989716 -0.281868E-07  0.141E-04    0.93      50.3  T
   8   -290.7989716 -0.130356E-07  0.229E-05    0.93     309.8  T
     SCC iter.                  ...        0 min,  0.318 sec
     gradient                   ...        0 min,  0.040 sec
 * total energy  :  -287.4024011 Eh     change       -0.2042765E-03 Eh
   gradient norm :     0.0078346 Eh/α   predicted    -0.2260420E-03 (  10.65%)
   displ. norm   :     0.4162612 α      lambda       -0.4048345E-03
   maximum displ.:     0.1699219 α      in ANC's #5, #28, #30, ...

........................................................................
.............................. CYCLE  135 ..............................
........................................................................

 iter      E             dE          RMSdq      gap      omega  full diag
   1   -290.8059675 -0.290806E+03  0.872E-03    0.92       0.0  T
   2   -290.8059657  0.183451E-05  0.691E-03    0.92       1.0  T
   3   -290.8059756 -0.985251E-05  0.497E-03    0.92       1.4  T
   4   -290.8059843 -0.871861E-05  0.178E-03    0.92       4.0  T
   5   -290.8059838  0.490912E-06  0.136E-03    0.92       5.2  T
   6   -290.8059852 -0.138523E-05  0.391E-04    0.92      18.1  T
   7   -290.8059852 -0.676152E-07  0.234E-04    0.92      30.3  T
   8   -290.8059853 -0.462565E-07  0.440E-05    0.92     161.2  T
   9   -290.8059853 -0.109566E-08  0.137E-05    0.92     518.8  T
     SCC iter.                  ...        0 min,  0.367 sec
     gradient                   ...        0 min,  0.051 sec
 * total energy  :  -287.4025313 Eh     change       -0.1301075E-03 Eh
   gradient norm :     0.0105705 Eh/α   predicted    -0.2374953E-03 (  82.54%)
   displ. norm   :     0.3978911 α      lambda       -0.3220236E-03
   maximum displ.:     0.1810139 α      in ANC's #5, #6, #2, ...

........................................................................
.............................. CYCLE  136 ..............................
........................................................................

 iter      E             dE          RMSdq      gap      omega  full diag
   1   -290.8027241 -0.290803E+03  0.550E-03    0.93       0.0  T
   2   -290.8027246 -0.481711E-06  0.296E-03    0.93       2.4  T
   3   -290.8027180  0.666374E-05  0.325E-03    0.93       2.2  T
   4   -290.8027253 -0.733050E-05  0.117E-03    0.93       6.0  T
   5   -290.8027260 -0.733020E-06  0.327E-04    0.93      21.7  T
   6   -290.8027260  0.384978E-08  0.221E-04    0.93      32.1  T
   7   -290.8027260 -0.239596E-07  0.110E-04    0.93      64.2  T
   8   -290.8027260 -0.877156E-08  0.186E-05    0.93     380.3  T
     SCC iter.                  ...        0 min,  0.283 sec
     gradient                   ...        0 min,  0.042 sec
 * total energy  :  -287.4027175 Eh     change       -0.1862149E-03 Eh
   gradient norm :     0.0083281 Eh/α   predicted    -0.1865055E-03 (   0.16%)
   displ. norm   :     0.2746118 α      lambda       -0.2618952E-03
   maximum displ.:     0.1181410 α      in ANC's #5, #6, #2, ...

........................................................................
.............................. CYCLE  137 ..............................
........................................................................

 iter      E             dE          RMSdq      gap      omega  full diag
   1   -290.8034396 -0.290803E+03  0.490E-03    0.93       0.0  T
   2   -290.8034416 -0.195729E-05  0.267E-03    0.93       2.7  T
   3   -290.8034392  0.237340E-05  0.236E-03    0.93       3.0  T
   4   -290.8034415 -0.230899E-05  0.161E-03    0.93       4.4  T
   5   -290.8034431 -0.158777E-05  0.476E-04    0.93      14.9  T
   6   -290.8034431 -0.455161E-07  0.159E-04    0.93      44.7  T
   7   -290.8034431  0.286144E-08  0.130E-04    0.93      54.7  T
     SCC iter.                  ...        0 min,  0.258 sec
     gradient                   ...        0 min,  0.040 sec
 * total energy  :  -287.4028621 Eh     change       -0.1446473E-03 Eh
   gradient norm :     0.0062685 Eh/α   predicted    -0.1408234E-03 (  -2.64%)
   displ. norm   :     0.4218551 α      lambda       -0.2007306E-03
   maximum displ.:     0.2052354 α      in ANC's #5, #6, #2, ...

........................................................................
.............................. CYCLE  138 ..............................
........................................................................

 iter      E             dE          RMSdq      gap      omega  full diag
   1   -290.8037270 -0.290804E+03  0.349E-03    0.94       0.0  T
   2   -290.8037275 -0.446297E-06  0.200E-03    0.94       3.6  T
   3   -290.8037266  0.923091E-06  0.189E-03    0.94       3.7  T
   4   -290.8037281 -0.151500E-05  0.891E-04    0.94       8.0  T
   5   -290.8037286 -0.485169E-06  0.264E-04    0.94      26.9  T
   6   -290.8037286 -0.159004E-07  0.179E-04    0.94      39.6  T
   7   -290.8037286 -0.240727E-07  0.908E-05    0.94      78.1  T
     SCC iter.                  ...        0 min,  0.266 sec
     gradient                   ...        0 min,  0.039 sec
 * total energy  :  -287.4030112 Eh     change       -0.1490528E-03 Eh
   gradient norm :     0.0053313 Eh/α   predicted    -0.1182285E-03 ( -20.68%)
   displ. norm   :     0.4806573 α      lambda       -0.2416899E-03
   maximum displ.:     0.2358233 α      in ANC's #5, #6, #2, ...

........................................................................
.............................. CYCLE  139 ..............................
........................................................................

 iter      E             dE          RMSdq      gap      omega  full diag
   1   -290.8066356 -0.290807E+03  0.388E-03    0.94       0.0  T
   2   -290.8066365 -0.963251E-06  0.203E-03    0.94       3.5  T
   3   -290.8066355  0.992772E-06  0.177E-03    0.94       4.0  T
   4   -290.8066361 -0.591119E-06  0.107E-03    0.94       6.6  T
   5   -290.8066369 -0.809669E-06  0.262E-04    0.94      27.0  T
   6   -290.8066370 -0.308669E-07  0.112E-04    0.94      63.2  T
   7   -290.8066370 -0.365952E-08  0.882E-05    0.94      80.4  T
     SCC iter.                  ...        0 min,  0.266 sec
     gradient                   ...        0 min,  0.055 sec
 * total energy  :  -287.4031690 Eh     change       -0.1578377E-03 Eh
   gradient norm :     0.0056009 Eh/α   predicted    -0.1487658E-03 (  -5.75%)
   displ. norm   :     0.6493192 α      lambda       -0.1919855E-03
   maximum displ.:     0.3169585 α      in ANC's #5, #6, #28, ...

........................................................................
.............................. CYCLE  140 ..............................
........................................................................

 iter      E             dE          RMSdq      gap      omega  full diag
   1   -290.8027278 -0.290803E+03  0.435E-03    0.94       0.0  T
   2   -290.8027291 -0.127759E-05  0.203E-03    0.94       3.5  T
   3   -290.8027278  0.124399E-05  0.156E-03    0.94       4.5  T
   4   -290.8027287 -0.890304E-06  0.109E-03    0.94       6.5  T
   5   -290.8027295 -0.820086E-06  0.225E-04    0.94      31.5  T
   6   -290.8027295 -0.327202E-08  0.979E-05    0.94      72.4  T
   7   -290.8027295 -0.216693E-08  0.479E-05    0.94     147.9  T
     SCC iter.                  ...        0 min,  0.238 sec
     gradient                   ...        0 min,  0.049 sec
 * total energy  :  -287.4032906 Eh     change       -0.1216033E-03 Eh
   gradient norm :     0.0054200 Eh/α   predicted    -0.1364701E-03 (  12.23%)
   displ. norm   :     0.3593790 α      lambda       -0.1458711E-03
   maximum displ.:     0.1759360 α      in ANC's #5, #6, #3, ...

........................................................................
.............................. CYCLE  141 ..............................
........................................................................

 iter      E             dE          RMSdq      gap      omega  full diag
   1   -290.8052913 -0.290805E+03  0.326E-03    0.94       0.0  T
   2   -290.8052917 -0.329299E-06  0.220E-03    0.94       3.2  T
   3   -290.8052918 -0.171549E-06  0.194E-03    0.94       3.6  T
   4   -290.8052934 -0.154917E-05  0.605E-04    0.94      11.7  T
   5   -290.8052934  0.374079E-07  0.417E-04    0.94      17.0  T
   6   -290.8052935 -0.126516E-06  0.163E-04    0.94      43.4  T
   7   -290.8052935 -0.169329E-07  0.747E-05    0.94      94.9  T
     SCC iter.                  ...        0 min,  0.233 sec
     gradient                   ...        0 min,  0.041 sec
 * total energy  :  -287.4033940 Eh     change       -0.1033704E-03 Eh
   gradient norm :     0.0034082 Eh/α   predicted    -0.8236021E-04 ( -20.33%)
   displ. norm   :     0.4442011 α      lambda       -0.1266866E-03
   maximum displ.:     0.2189671 α      in ANC's #5, #6, #3, ...

........................................................................
.............................. CYCLE  142 ..............................
........................................................................

 iter      E             dE          RMSdq      gap      omega  full diag
   1   -290.8061486 -0.290806E+03  0.344E-03    0.94       0.0  T
   2   -290.8061484  0.230716E-06  0.258E-03    0.94       2.8  T
   3   -290.8061497 -0.127260E-05  0.191E-03    0.94       3.7  T
   4   -290.8061511 -0.145460E-05  0.640E-04    0.94      11.1  T
   5   -290.8061512 -0.315715E-07  0.403E-04    0.94      17.6  T
   6   -290.8061512 -0.864105E-07  0.209E-04    0.94      34.0  T
   7   -290.8061513 -0.326185E-07  0.860E-05    0.94      82.4  T
   8   -290.8061513 -0.491497E-08  0.197E-05    0.94     360.1  T
     SCC iter.                  ...        0 min,  0.274 sec
     gradient                   ...        0 min,  0.039 sec
 * total energy  :  -287.4034824 Eh     change       -0.8837301E-04 Eh
   gradient norm :     0.0037633 Eh/α   predicted    -0.7584744E-04 ( -14.17%)
   displ. norm   :     0.3463386 α      lambda       -0.1077076E-03
   maximum displ.:     0.1625532 α      in ANC's #5, #10, #16, ...

........................................................................
.............................. CYCLE  143 ..............................
........................................................................

 iter      E             dE          RMSdq      gap      omega  full diag
   1   -290.8103444 -0.290810E+03  0.420E-03    0.94       0.0  T
   2   -290.8103428  0.153706E-05  0.364E-03    0.94       1.9  T
   3   -290.8103464 -0.357559E-05  0.201E-03    0.94       3.5  T
   4   -290.8103477 -0.132757E-05  0.879E-04    0.94       8.1  T
   5   -290.8103479 -0.197138E-06  0.508E-04    0.94      14.0  T
   6   -290.8103481 -0.145023E-06  0.225E-04    0.94      31.6  T
   7   -290.8103481 -0.396860E-07  0.774E-05    0.94      91.6  T
   8   -290.8103481 -0.446721E-08  0.169E-05    0.94     420.5  T
     SCC iter.                  ...        0 min,  0.273 sec
     gradient                   ...        0 min,  0.037 sec
 * total energy  :  -287.4035415 Eh     change       -0.5914947E-04 Eh
   gradient norm :     0.0052652 Eh/α   predicted    -0.6031840E-04 (   1.98%)
   displ. norm   :     0.4315148 α      lambda       -0.1037537E-03
   maximum displ.:     0.2141515 α      in ANC's #5, #3, #6, ...

........................................................................
.............................. CYCLE  144 ..............................
........................................................................

 iter      E             dE          RMSdq      gap      omega  full diag
   1   -290.8071874 -0.290807E+03  0.363E-03    0.94       0.0  T
   2   -290.8071862  0.122215E-05  0.301E-03    0.94       2.4  T
   3   -290.8071883 -0.209108E-05  0.187E-03    0.94       3.8  T
   4   -290.8071893 -0.999990E-06  0.850E-04    0.94       8.3  T
   5   -290.8071896 -0.297885E-06  0.367E-04    0.94      19.3  T
   6   -290.8071897 -0.628702E-07  0.220E-04    0.94      32.2  T
   7   -290.8071897 -0.376405E-07  0.753E-05    0.94      94.1  T
   8   -290.8071897 -0.406845E-08  0.172E-05    0.94     411.0  T
     SCC iter.                  ...        0 min,  0.275 sec
     gradient                   ...        0 min,  0.035 sec
 * total energy  :  -287.4035969 Eh     change       -0.5544197E-04 Eh
   gradient norm :     0.0048182 Eh/α   predicted    -0.6153970E-04 (  11.00%)
   displ. norm   :     0.1416628 α      lambda       -0.7102052E-04
   maximum displ.:     0.0562348 α      in ANC's #5, #10, #3, ...

........................................................................
.............................. CYCLE  145 ..............................
........................................................................

 iter      E             dE          RMSdq      gap      omega  full diag
   1   -290.8078584 -0.290808E+03  0.213E-03    0.94       0.0  T
   2   -290.8078586 -0.224746E-06  0.131E-03    0.94       5.4  T
   3   -290.8078584  0.245887E-06  0.135E-03    0.94       5.3  T
   4   -290.8078594 -0.106281E-05  0.430E-04    0.94      16.5  T
   5   -290.8078594 -0.713021E-08  0.166E-04    0.94      42.6  T
   6   -290.8078595 -0.133798E-07  0.614E-05    0.94     115.4  T
     SCC iter.                  ...        0 min,  0.209 sec
     gradient                   ...        0 min,  0.038 sec
 * total energy  :  -287.4036479 Eh     change       -0.5097839E-04 Eh
   gradient norm :     0.0037804 Eh/α   predicted    -0.3622519E-04 ( -28.94%)
   displ. norm   :     0.2356936 α      lambda       -0.1015018E-03
   maximum displ.:     0.0948785 α      in ANC's #5, #10, #3, ...

........................................................................
.............................. CYCLE  146 ..............................
........................................................................

 iter      E             dE          RMSdq      gap      omega  full diag
   1   -290.8083273 -0.290808E+03  0.210E-03    0.94       0.0  T
   2   -290.8083274 -0.109244E-06  0.137E-03    0.94       5.2  T
   3   -290.8083275 -0.786457E-07  0.109E-03    0.94       6.5  T
   4   -290.8083281 -0.669698E-06  0.672E-04    0.94      10.5  T
   5   -290.8083283 -0.199796E-06  0.214E-04    0.94      33.1  T
   6   -290.8083284 -0.502939E-08  0.703E-05    0.94     100.8  T
   7   -290.8083283  0.150447E-08  0.641E-05    0.94     110.6  T
     SCC iter.                  ...        0 min,  0.238 sec
     gradient                   ...        0 min,  0.035 sec
 * total energy  :  -287.4037194 Eh     change       -0.7145221E-04 Eh
   gradient norm :     0.0035784 Eh/α   predicted    -0.5357523E-04 ( -25.02%)
   displ. norm   :     0.2619731 α      lambda       -0.8333344E-04
   maximum displ.:     0.1114076 α      in ANC's #5, #10, #3, ...

........................................................................
.............................. CYCLE  147 ..............................
........................................................................

 iter      E             dE          RMSdq      gap      omega  full diag
   1   -290.8083555 -0.290808E+03  0.191E-03    0.94       0.0  T
   2   -290.8083559 -0.395144E-06  0.120E-03    0.94       5.9  T
   3   -290.8083563 -0.358216E-06  0.608E-04    0.94      11.7  T
   4   -290.8083561  0.137051E-06  0.736E-04    0.94       9.6  T
   5   -290.8083565 -0.329459E-06  0.142E-04    0.94      50.1  T
   6   -290.8083565  0.360558E-09  0.601E-05    0.94     118.0  T
     SCC iter.                  ...        0 min,  0.232 sec
     gradient                   ...        0 min,  0.040 sec
 * total energy  :  -287.4037799 Eh     change       -0.6057361E-04 Eh
   gradient norm :     0.0043895 Eh/α   predicted    -0.4453141E-04 ( -26.48%)
   displ. norm   :     0.3333901 α      lambda       -0.1025548E-03
   maximum displ.:     0.1436093 α      in ANC's #5, #10, #3, ...

........................................................................
.............................. CYCLE  148 ..............................
........................................................................

 iter      E             dE          RMSdq      gap      omega  full diag
   1   -290.8072280 -0.290807E+03  0.322E-03    0.94       0.0  T
   2   -290.8072290 -0.958913E-06  0.195E-03    0.94       3.6  T
   3   -290.8072301 -0.110340E-05  0.834E-04    0.94       8.5  T
   4   -290.8072299  0.126876E-06  0.674E-04    0.94      10.5  T
   5   -290.8072302 -0.225003E-06  0.308E-04    0.94      23.0  T
   6   -290.8072302 -0.641373E-07  0.623E-05    0.94     113.8  T
   7   -290.8072302  0.452474E-10  0.284E-05    0.94     249.8  T
     SCC iter.                  ...        0 min,  0.283 sec
     gradient                   ...        0 min,  0.042 sec
 * total energy  :  -287.4038515 Eh     change       -0.7159057E-04 Eh
   gradient norm :     0.0044884 Eh/α   predicted    -0.5698136E-04 ( -20.41%)
   displ. norm   :     0.3412058 α      lambda       -0.1116276E-03
   maximum displ.:     0.1531728 α      in ANC's #5, #10, #3, ...

........................................................................
.............................. CYCLE  149 ..............................
........................................................................

 iter      E             dE          RMSdq      gap      omega  full diag
   1   -290.8066235 -0.290807E+03  0.398E-03    0.94       0.0  T
   2   -290.8066251 -0.159458E-05  0.200E-03    0.95       3.5  T
   3   -290.8066259 -0.803423E-06  0.134E-03    0.95       5.3  T
   4   -290.8066266 -0.768114E-06  0.689E-04    0.95      10.3  T
   5   -290.8066268 -0.157201E-06  0.343E-04    0.95      20.7  T
   6   -290.8066268 -0.584465E-07  0.123E-04    0.95      57.8  T
   7   -290.8066269 -0.599965E-08  0.102E-04    0.95      69.8  T
     SCC iter.                  ...        0 min,  0.250 sec
     gradient                   ...        0 min,  0.039 sec
 * total energy  :  -287.4039328 Eh     change       -0.8127942E-04 Eh
   gradient norm :     0.0038329 Eh/α   predicted    -0.6231712E-04 ( -23.33%)
   displ. norm   :     0.3507429 α      lambda       -0.1090333E-03
   maximum displ.:     0.1612564 α      in ANC's #5, #10, #3, ...

........................................................................
.............................. CYCLE  150 ..............................
........................................................................

 iter      E             dE          RMSdq      gap      omega  full diag
   1   -290.8064688 -0.290806E+03  0.376E-03    0.95       0.0  T
   2   -290.8064696 -0.830992E-06  0.197E-03    0.95       3.6  T
   3   -290.8064698 -0.202559E-06  0.186E-03    0.95       3.8  T
   4   -290.8064725 -0.270925E-05  0.587E-04    0.95      12.1  T
   5   -290.8064725 -0.508174E-08  0.249E-04    0.95      28.5  T
   6   -290.8064725 -0.539734E-08  0.170E-04    0.95      41.6  T
   7   -290.8064725 -0.213626E-07  0.102E-04    0.95      69.5  T
     SCC iter.                  ...        0 min,  0.261 sec
     gradient                   ...        0 min,  0.040 sec
 * total energy  :  -287.4040140 Eh     change       -0.8117035E-04 Eh
   gradient norm :     0.0037023 Eh/α   predicted    -0.6122693E-04 ( -24.57%)
   displ. norm   :     0.4280264 α      lambda       -0.1064098E-03
   maximum displ.:     0.2025399 α      in ANC's #5, #10, #3, ...
 * RMSD in coord.:     0.7167820 α      energy gain  -0.4879998E-02 Eh

generating ANC from exact Hessian ...
Using Lindh-Hessian (1995)
 Shifting diagonal of input Hessian by   1.014212062941287E-002
 Lowest  eigenvalues of input Hessian
    0.010000    0.010083    0.010094    0.010102    0.000000    0.000000
    0.000000    0.000000    0.000000    0.000000    0.010179    0.010203
    0.010254    0.010286    0.010328    0.010367    0.010380    0.010436
 Highest eigenvalues
    2.023104    2.080849    2.160009    2.177077    2.302327    2.347469
 

........................................................................
.............................. CYCLE  151 ..............................
........................................................................

 iter      E             dE          RMSdq      gap      omega  full diag
   1   -290.8053707 -0.290805E+03  0.410E-03    0.95       0.0  T
   2   -290.8053713 -0.542826E-06  0.211E-03    0.95       3.4  T
   3   -290.8053709  0.366177E-06  0.216E-03    0.95       3.3  T
   4   -290.8053745 -0.363215E-05  0.737E-04    0.95       9.6  T
   5   -290.8053745 -0.236806E-07  0.272E-04    0.95      26.1  T
   6   -290.8053746 -0.157673E-07  0.109E-04    0.95      65.1  T
   7   -290.8053746 -0.158252E-09  0.658E-05    0.95     107.7  T
     SCC iter.                  ...        0 min,  0.261 sec
     gradient                   ...        0 min,  0.039 sec
 * total energy  :  -287.4040888 Eh     change       -0.7484257E-04 Eh
   gradient norm :     0.0058660 Eh/α   predicted     0.0000000E+00 (-100.00%)
   displ. norm   :     0.0627903 α      lambda       -0.7336894E-04
   maximum displ.:     0.0207923 α      in ANC's #19, #96, #18, ...

........................................................................
.............................. CYCLE  152 ..............................
........................................................................

 iter      E             dE          RMSdq      gap      omega  full diag
   1   -290.8071549 -0.290807E+03  0.203E-03    0.95       0.0  T
   2   -290.8071555 -0.587321E-06  0.102E-03    0.95       6.9  T
   3   -290.8071553  0.157439E-06  0.892E-04    0.95       7.9  T
   4   -290.8071556 -0.282121E-06  0.569E-04    0.95      12.5  T
   5   -290.8071557 -0.127139E-06  0.836E-05    0.95      84.8  T
   6   -290.8071557  0.159855E-08  0.562E-05    0.95     126.1  T
     SCC iter.                  ...        0 min,  0.228 sec
     gradient                   ...        0 min,  0.042 sec
 * total energy  :  -287.4041600 Eh     change       -0.7119060E-04 Eh
   gradient norm :     0.0022381 Eh/α   predicted    -0.4593188E-04 ( -35.48%)
   displ. norm   :     0.1864194 α      lambda       -0.1587993E-03
   maximum displ.:     0.0617320 α      in ANC's #19, #18, #96, ...

........................................................................
.............................. CYCLE  153 ..............................
........................................................................

 iter      E             dE          RMSdq      gap      omega  full diag
   1   -290.8095176 -0.290810E+03  0.354E-03    0.96       0.0  T
   2   -290.8095190 -0.142138E-05  0.179E-03    0.96       4.0  T
   3   -290.8095188  0.238505E-06  0.155E-03    0.96       4.6  T
   4   -290.8095199 -0.108994E-05  0.826E-04    0.96       8.6  T
   5   -290.8095202 -0.275567E-06  0.261E-04    0.96      27.1  T
   6   -290.8095202 -0.929725E-08  0.147E-04    0.96      48.3  T
   7   -290.8095202 -0.868630E-08  0.987E-05    0.96      71.8  T
     SCC iter.                  ...        0 min,  0.278 sec
     gradient                   ...        0 min,  0.041 sec
 * total energy  :  -287.4042573 Eh     change       -0.9732781E-04 Eh
   gradient norm :     0.0050307 Eh/α   predicted    -0.8216223E-04 ( -15.58%)
   displ. norm   :     0.2370870 α      lambda       -0.1425204E-03
   maximum displ.:     0.0762717 α      in ANC's #19, #18, #1, ...

........................................................................
.............................. CYCLE  154 ..............................
........................................................................

 iter      E             dE          RMSdq      gap      omega  full diag
   1   -290.8096616 -0.290810E+03  0.244E-03    0.96       0.0  T
   2   -290.8096622 -0.558879E-06  0.162E-03    0.96       4.4  T
   3   -290.8096623 -0.993991E-07  0.116E-03    0.96       6.1  T
   4   -290.8096628 -0.460770E-06  0.612E-04    0.96      11.6  T
   5   -290.8096629 -0.180708E-06  0.303E-04    0.96      23.4  T
   6   -290.8096630 -0.623696E-07  0.699E-05    0.96     101.5  T
   7   -290.8096630  0.328885E-08  0.749E-05    0.96      94.7  T
     SCC iter.                  ...        0 min,  0.259 sec
     gradient                   ...        0 min,  0.044 sec
 * total energy  :  -287.4043551 Eh     change       -0.9776273E-04 Eh
   gradient norm :     0.0067479 Eh/α   predicted    -0.7529323E-04 ( -22.98%)
   displ. norm   :     0.3399228 α      lambda       -0.1726457E-03
   maximum displ.:     0.1110566 α      in ANC's #19, #18, #1, ...

........................................................................
.............................. CYCLE  155 ..............................
........................................................................

 iter      E             dE          RMSdq      gap      omega  full diag
   1   -290.8083064 -0.290808E+03  0.271E-03    0.96       0.0  T
   2   -290.8083056  0.758763E-06  0.204E-03    0.96       3.5  T
   3   -290.8083068 -0.120384E-05  0.165E-03    0.96       4.3  T
   4   -290.8083085 -0.170538E-05  0.613E-04    0.96      11.6  T
   5   -290.8083086 -0.654017E-07  0.244E-04    0.96      29.0  T
   6   -290.8083086 -0.579485E-08  0.108E-04    0.96      65.6  T
   7   -290.8083086 -0.145548E-08  0.102E-04    0.96      69.8  T
     SCC iter.                  ...        0 min,  0.246 sec
     gradient                   ...        0 min,  0.039 sec
 * total energy  :  -287.4045014 Eh     change       -0.1463183E-03 Eh
   gradient norm :     0.0065423 Eh/α   predicted    -0.9630006E-04 ( -34.18%)
   displ. norm   :     0.5381909 α      lambda       -0.3033589E-03
   maximum displ.:     0.1755022 α      in ANC's #19, #1, #18, ...

........................................................................
.............................. CYCLE  156 ..............................
........................................................................

 iter      E             dE          RMSdq      gap      omega  full diag
   1   -290.8049158 -0.290805E+03  0.545E-03    0.97       0.0  T
   2   -290.8049126  0.324610E-05  0.391E-03    0.97       1.8  T
   3   -290.8049176 -0.496703E-05  0.331E-03    0.97       2.1  T
   4   -290.8049247 -0.718736E-05  0.112E-03    0.97       6.3  T
   5   -290.8049248 -0.301474E-07  0.476E-04    0.97      14.9  T
   6   -290.8049248 -0.295225E-07  0.226E-04    0.97      31.4  T
   7   -290.8049248 -0.231154E-07  0.178E-04    0.97      39.9  T
   8   -290.8049248 -0.200993E-07  0.250E-05    0.97     284.1  T
     SCC iter.                  ...        0 min,  0.289 sec
     gradient                   ...        0 min,  0.042 sec
 * total energy  :  -287.4047277 Eh     change       -0.2263066E-03 Eh
   gradient norm :     0.0073149 Eh/α   predicted    -0.1956291E-03 ( -13.56%)
   displ. norm   :     0.4123956 α      lambda       -0.2585174E-03
   maximum displ.:     0.1346090 α      in ANC's #1, #19, #2, ...

........................................................................
.............................. CYCLE  157 ..............................
........................................................................

 iter      E             dE          RMSdq      gap      omega  full diag
   1   -290.8042838 -0.290804E+03  0.480E-03    0.98       0.0  T
   2   -290.8042785  0.521451E-05  0.373E-03    0.99       1.9  T
   3   -290.8042858 -0.726506E-05  0.294E-03    0.98       2.4  T
   4   -290.8042918 -0.598453E-05  0.833E-04    0.99       8.5  T
   5   -290.8042918  0.257913E-07  0.398E-04    0.99      17.8  T
   6   -290.8042918 -0.488085E-07  0.316E-04    0.99      22.4  T
   7   -290.8042919 -0.685566E-07  0.850E-05    0.99      83.4  T
   8   -290.8042919 -0.185713E-08  0.216E-05    0.99     327.9  T
     SCC iter.                  ...        0 min,  0.308 sec
     gradient                   ...        0 min,  0.039 sec
 * total energy  :  -287.4049207 Eh     change       -0.1929207E-03 Eh
   gradient norm :     0.0076579 Eh/α   predicted    -0.1512616E-03 ( -21.59%)
   displ. norm   :     0.4345197 α      lambda       -0.2936785E-03
   maximum displ.:     0.1454576 α      in ANC's #1, #19, #2, ...

........................................................................
.............................. CYCLE  158 ..............................
........................................................................

 iter      E             dE          RMSdq      gap      omega  full diag
   1   -290.8055839 -0.290806E+03  0.566E-03    0.99       0.0  T
   2   -290.8055803  0.362451E-05  0.389E-03    0.99       1.8  T
   3   -290.8055860 -0.573917E-05  0.353E-03    0.99       2.0  T
   4   -290.8055946 -0.855900E-05  0.104E-03    0.99       6.8  T
   5   -290.8055946 -0.821081E-07  0.430E-04    0.99      16.5  T
   6   -290.8055947 -0.168578E-07  0.295E-04    0.99      24.1  T
   7   -290.8055947 -0.657637E-07  0.133E-04    0.99      53.5  T
   8   -290.8055947 -0.733593E-08  0.206E-05    0.99     344.7  T
     SCC iter.                  ...        0 min,  0.312 sec
     gradient                   ...        0 min,  0.041 sec
 * total energy  :  -287.4051232 Eh     change       -0.2025941E-03 Eh
   gradient norm :     0.0087411 Eh/α   predicted    -0.1745697E-03 ( -13.83%)
   displ. norm   :     0.5096427 α      lambda       -0.3335429E-03
   maximum displ.:     0.1695014 α      in ANC's #19, #1, #2, ...

........................................................................
.............................. CYCLE  159 ..............................
........................................................................

 iter      E             dE          RMSdq      gap      omega  full diag
   1   -290.8077403 -0.290808E+03  0.513E-03    1.00       0.0  T
   2   -290.8077297  0.105595E-04  0.453E-03    1.01       1.6  T
   3   -290.8077436 -0.138959E-04  0.319E-03    1.00       2.2  T
   4   -290.8077499 -0.633272E-05  0.105E-03    1.01       6.7  T
   5   -290.8077500 -0.200594E-07  0.508E-04    1.01      14.0  T
   6   -290.8077500 -0.855567E-07  0.422E-04    1.01      16.8  T
   7   -290.8077502 -0.124114E-06  0.918E-05    1.01      77.3  T
   8   -290.8077502 -0.202624E-08  0.262E-05    1.01     270.4  T
     SCC iter.                  ...        0 min,  0.327 sec
     gradient                   ...        0 min,  0.044 sec
 * total energy  :  -287.4053764 Eh     change       -0.2531956E-03 Eh
   gradient norm :     0.0080141 Eh/α   predicted    -0.2101181E-03 ( -17.01%)
   displ. norm   :     0.5707261 α      lambda       -0.3438678E-03
   maximum displ.:     0.2015240 α      in ANC's #19, #2, #1, ...

........................................................................
.............................. CYCLE  160 ..............................
........................................................................

 iter      E             dE          RMSdq      gap      omega  full diag
   1   -290.8077274 -0.290808E+03  0.500E-03    1.01       0.0  T
   2   -290.8077203  0.705387E-05  0.407E-03    1.01       1.7  T
   3   -290.8077291 -0.879436E-05  0.313E-03    1.01       2.3  T
   4   -290.8077355 -0.645218E-05  0.103E-03    1.01       6.9  T
   5   -290.8077356 -0.484146E-07  0.485E-04    1.01      14.6  T
   6   -290.8077356 -0.292637E-07  0.342E-04    1.01      20.7  T
   7   -290.8077357 -0.941752E-07  0.115E-04    1.01      61.4  T
   8   -290.8077357 -0.392839E-08  0.227E-05    1.01     312.4  T
     SCC iter.                  ...        0 min,  0.319 sec
     gradient                   ...        0 min,  0.048 sec
 * total energy  :  -287.4056496 Eh     change       -0.2731600E-03 Eh
   gradient norm :     0.0069695 Eh/α   predicted    -0.2279436E-03 ( -16.55%)
   displ. norm   :     0.4622851 α      lambda       -0.4432591E-03
   maximum displ.:     0.1462804 α      in ANC's #3, #2, #13, ...

........................................................................
.............................. CYCLE  161 ..............................
........................................................................

 iter      E             dE          RMSdq      gap      omega  full diag
   1   -290.8174768 -0.290817E+03  0.886E-03    1.01       0.0  T
   2   -290.8174891 -0.123141E-04  0.537E-03    1.02       1.3  T
   3   -290.8174867  0.241852E-05  0.484E-03    1.01       1.5  T
   4   -290.8174978 -0.110714E-04  0.221E-03    1.02       3.2  T
   5   -290.8174990 -0.121415E-05  0.825E-04    1.02       8.6  T
   6   -290.8174993 -0.346885E-06  0.394E-04    1.02      18.0  T
   7   -290.8174994 -0.957993E-07  0.276E-04    1.02      25.7  T
   8   -290.8174995 -0.517930E-07  0.536E-05    1.02     132.3  T
   9   -290.8174995 -0.707928E-09  0.133E-05    1.02     533.6  T
     SCC iter.                  ...        0 min,  0.339 sec
     gradient                   ...        0 min,  0.041 sec
 * total energy  :  -287.4057559 Eh     change       -0.1063390E-03 Eh
   gradient norm :     0.0124000 Eh/α   predicted    -0.2689950E-03 ( 152.96%)
   displ. norm   :     0.4917038 α      lambda       -0.4282711E-03
   maximum displ.:     0.1676993 α      in ANC's #19, #2, #1, ...

........................................................................
.............................. CYCLE  162 ..............................
........................................................................

 iter      E             dE          RMSdq      gap      omega  full diag
   1   -290.8090739 -0.290809E+03  0.859E-03    1.03       0.0  T
   2   -290.8090750 -0.105314E-05  0.520E-03    1.03       1.4  T
   3   -290.8090743  0.647761E-06  0.444E-03    1.03       1.6  T
   4   -290.8090847 -0.103891E-04  0.236E-03    1.03       3.0  T
   5   -290.8090870 -0.228343E-05  0.735E-04    1.03       9.6  T
   6   -290.8090871 -0.116061E-06  0.176E-04    1.03      40.2  T
   7   -290.8090871  0.166609E-07  0.210E-04    1.03      33.8  T
   8   -290.8090871 -0.342301E-07  0.358E-05    1.03     198.2  T
     SCC iter.                  ...        0 min,  0.255 sec
     gradient                   ...        0 min,  0.038 sec
 * total energy  :  -287.4059958 Eh     change       -0.2398568E-03 Eh
   gradient norm :     0.0061907 Eh/α   predicted    -0.2659091E-03 (  10.86%)
   displ. norm   :     0.1875694 α      lambda       -0.1130714E-03
   maximum displ.:     0.0697040 α      in ANC's #3, #2, #6, ...

........................................................................
.............................. CYCLE  163 ..............................
........................................................................

 iter      E             dE          RMSdq      gap      omega  full diag
   1   -290.8082986 -0.290808E+03  0.216E-03    1.03       0.0  T
   2   -290.8082985  0.974521E-07  0.156E-03    1.03       4.5  T
   3   -290.8082994 -0.870671E-06  0.127E-03    1.03       5.6  T
   4   -290.8083004 -0.957861E-06  0.367E-04    1.03      19.3  T
   5   -290.8083004  0.168592E-08  0.158E-04    1.03      44.9  T
   6   -290.8083004 -0.377946E-08  0.772E-05    1.03      91.8  T
     SCC iter.                  ...        0 min,  0.229 sec
     gradient                   ...        0 min,  0.058 sec
 * total energy  :  -287.4060930 Eh     change       -0.9723904E-04 Eh
   gradient norm :     0.0044499 Eh/α   predicted    -0.5852809E-04 ( -39.81%)
   displ. norm   :     0.3785501 α      lambda       -0.2838763E-03
   maximum displ.:     0.1412702 α      in ANC's #3, #6, #28, ...

........................................................................
.............................. CYCLE  164 ..............................
........................................................................

 iter      E             dE          RMSdq      gap      omega  full diag
   1   -290.8094808 -0.290809E+03  0.552E-03    1.04       0.0  T
   2   -290.8094872 -0.646876E-05  0.306E-03    1.04       2.3  T
   3   -290.8094895 -0.227609E-05  0.177E-03    1.04       4.0  T
   4   -290.8094901 -0.555022E-06  0.128E-03    1.04       5.5  T
   5   -290.8094910 -0.948493E-06  0.669E-04    1.04      10.6  T
   6   -290.8094911 -0.936784E-07  0.140E-04    1.04      50.5  T
   7   -290.8094911 -0.410012E-08  0.624E-05    1.04     113.6  T
     SCC iter.                  ...        0 min,  0.229 sec
     gradient                   ...        0 min,  0.035 sec
 * total energy  :  -287.4062819 Eh     change       -0.1888544E-03 Eh
   gradient norm :     0.0039890 Eh/α   predicted    -0.1622810E-03 ( -14.07%)
   displ. norm   :     0.5160529 α      lambda       -0.1726051E-03
   maximum displ.:     0.1922226 α      in ANC's #3, #6, #2, ...

........................................................................
.............................. CYCLE  165 ..............................
........................................................................

 iter      E             dE          RMSdq      gap      omega  full diag
   1   -290.8070023 -0.290807E+03  0.400E-03    1.05       0.0  T
   2   -290.8070006  0.179114E-05  0.284E-03    1.05       2.5  T
   3   -290.8070034 -0.285605E-05  0.252E-03    1.05       2.8  T
   4   -290.8070076 -0.423716E-05  0.803E-04    1.05       8.8  T
   5   -290.8070077 -0.773350E-07  0.363E-04    1.05      19.5  T
   6   -290.8070077 -0.131775E-07  0.107E-04    1.05      66.3  T
   7   -290.8070077 -0.405345E-08  0.304E-05    1.05     232.8  T
     SCC iter.                  ...        0 min,  0.256 sec
     gradient                   ...        0 min,  0.057 sec
 * total energy  :  -287.4064062 Eh     change       -0.1243490E-03 Eh
   gradient norm :     0.0056317 Eh/α   predicted    -0.1092890E-03 ( -12.11%)
   displ. norm   :     0.3807725 α      lambda       -0.1587510E-03
   maximum displ.:     0.1561085 α      in ANC's #3, #6, #8, ...

........................................................................
.............................. CYCLE  166 ..............................
........................................................................

 iter      E             dE          RMSdq      gap      omega  full diag
   1   -290.8079593 -0.290808E+03  0.306E-03    1.06       0.0  T
   2   -290.8079590  0.281232E-06  0.215E-03    1.06       3.3  T
   3   -290.8079608 -0.181904E-05  0.181E-03    1.06       3.9  T
   4   -290.8079629 -0.207694E-05  0.555E-04    1.06      12.8  T
   5   -290.8079629 -0.150179E-07  0.322E-04    1.06      22.0  T
   6   -290.8079629 -0.126510E-07  0.822E-05    1.06      86.3  T
   7   -290.8079629 -0.274878E-08  0.273E-05    1.06     259.8  T
     SCC iter.                  ...        0 min,  0.246 sec
     gradient                   ...        0 min,  0.048 sec
 * total energy  :  -287.4065309 Eh     change       -0.1246419E-03 Eh
   gradient norm :     0.0043310 Eh/α   predicted    -0.9088865E-04 ( -27.08%)
   displ. norm   :     0.4375498 α      lambda       -0.1777681E-03
   maximum displ.:     0.1859411 α      in ANC's #3, #6, #8, ...

........................................................................
.............................. CYCLE  167 ..............................
........................................................................

 iter      E             dE          RMSdq      gap      omega  full diag
   1   -290.8089468 -0.290809E+03  0.337E-03    1.06       0.0  T
   2   -290.8089425  0.424184E-05  0.298E-03    1.06       2.4  T
   3   -290.8089488 -0.626464E-05  0.215E-03    1.06       3.3  T
   4   -290.8089512 -0.236759E-05  0.719E-04    1.06       9.9  T
   5   -290.8089513 -0.161884E-06  0.285E-04    1.06      24.9  T
   6   -290.8089513 -0.503024E-08  0.109E-04    1.06      65.2  T
   7   -290.8089513 -0.446113E-08  0.573E-05    1.06     123.7  T
     SCC iter.                  ...        0 min,  0.252 sec
     gradient                   ...        0 min,  0.053 sec
 * total energy  :  -287.4066749 Eh     change       -0.1440398E-03 Eh
   gradient norm :     0.0027450 Eh/α   predicted    -0.1059014E-03 ( -26.48%)
   displ. norm   :     0.4863305 α      lambda       -0.1888215E-03
   maximum displ.:     0.2108624 α      in ANC's #3, #6, #8, ...

........................................................................
.............................. CYCLE  168 ..............................
........................................................................

 iter      E             dE          RMSdq      gap      omega  full diag
   1   -290.8098622 -0.290810E+03  0.435E-03    1.07       0.0  T
   2   -290.8098558  0.633094E-05  0.403E-03    1.07       1.8  T
   3   -290.8098655 -0.964645E-05  0.252E-03    1.07       2.8  T
   4   -290.8098683 -0.286570E-05  0.920E-04    1.07       7.7  T
   5   -290.8098684 -0.791513E-07  0.417E-04    1.07      17.0  T
   6   -290.8098685 -0.597940E-07  0.152E-04    1.07      46.6  T
   7   -290.8098685 -0.949217E-08  0.988E-05    1.07      71.8  T
     SCC iter.                  ...        0 min,  0.249 sec
     gradient                   ...        0 min,  0.036 sec
 * total energy  :  -287.4068242 Eh     change       -0.1492304E-03 Eh
   gradient norm :     0.0030621 Eh/α   predicted    -0.1167441E-03 ( -21.77%)
   displ. norm   :     0.5373042 α      lambda       -0.1740315E-03
   maximum displ.:     0.2363636 α      in ANC's #6, #3, #2, ...

........................................................................
.............................. CYCLE  169 ..............................
........................................................................

 iter      E             dE          RMSdq      gap      omega  full diag
   1   -290.8084105 -0.290808E+03  0.504E-03    1.07       0.0  T
   2   -290.8083976  0.128801E-04  0.529E-03    1.07       1.3  T
   3   -290.8084168 -0.191499E-04  0.256E-03    1.07       2.8  T
   4   -290.8084200 -0.318879E-05  0.917E-04    1.07       7.7  T
   5   -290.8084200 -0.216085E-07  0.465E-04    1.07      15.2  T
   6   -290.8084201 -0.113662E-06  0.105E-04    1.07      67.7  T
   7   -290.8084201  0.118581E-08  0.684E-05    1.07     103.6  T
     SCC iter.                  ...        0 min,  0.244 sec
     gradient                   ...        0 min,  0.041 sec
 * total energy  :  -287.4069603 Eh     change       -0.1361557E-03 Eh
   gradient norm :     0.0042478 Eh/α   predicted    -0.1121403E-03 ( -17.64%)
   displ. norm   :     0.4884870 α      lambda       -0.1789674E-03
   maximum displ.:     0.2299406 α      in ANC's #6, #3, #4, ...

........................................................................
.............................. CYCLE  170 ..............................
........................................................................

 iter      E             dE          RMSdq      gap      omega  full diag
   1   -290.8096562 -0.290810E+03  0.424E-03    1.07       0.0  T
   2   -290.8096501  0.611479E-05  0.408E-03    1.07       1.7  T
   3   -290.8096590 -0.890018E-05  0.240E-03    1.07       2.9  T
   4   -290.8096613 -0.234872E-05  0.855E-04    1.07       8.3  T
   5   -290.8096613 -0.800060E-08  0.418E-04    1.07      17.0  T
   6   -290.8096614 -0.816295E-07  0.163E-04    1.07      43.6  T
   7   -290.8096614 -0.141869E-07  0.867E-05    1.07      81.8  T
     SCC iter.                  ...        0 min,  0.287 sec
     gradient                   ...        0 min,  0.040 sec
 * total energy  :  -287.4070891 Eh     change       -0.1287874E-03 Eh
   gradient norm :     0.0038051 Eh/α   predicted    -0.1108388E-03 ( -13.94%)
   displ. norm   :     0.5141521 α      lambda       -0.1487346E-03
   maximum displ.:     0.2359768 α      in ANC's #6, #3, #4, ...

........................................................................
.............................. CYCLE  171 ..............................
........................................................................

 iter      E             dE          RMSdq      gap      omega  full diag
   1   -290.8072259 -0.290807E+03  0.447E-03    1.08       0.0  T
   2   -290.8072167  0.917506E-05  0.454E-03    1.08       1.6  T
   3   -290.8072302 -0.134200E-04  0.240E-03    1.08       3.0  T
   4   -290.8072329 -0.273544E-05  0.756E-04    1.08       9.4  T
   5   -290.8072329 -0.341100E-07  0.348E-04    1.08      20.4  T
   6   -290.8072330 -0.429789E-07  0.802E-05    1.08      88.4  T
   7   -290.8072330 -0.111356E-09  0.366E-05    1.08     193.9  T
     SCC iter.                  ...        0 min,  0.278 sec
     gradient                   ...        0 min,  0.042 sec
 * total energy  :  -287.4072036 Eh     change       -0.1144992E-03 Eh
   gradient norm :     0.0040938 Eh/α   predicted    -0.9402827E-04 ( -17.88%)
   displ. norm   :     0.4458157 α      lambda       -0.1967435E-03
   maximum displ.:     0.2185881 α      in ANC's #6, #3, #4, ...

........................................................................
.............................. CYCLE  172 ..............................
........................................................................

 iter      E             dE          RMSdq      gap      omega  full diag
   1   -290.8106473 -0.290811E+03  0.533E-03    1.08       0.0  T
   2   -290.8106469  0.359500E-06  0.393E-03    1.08       1.8  T
   3   -290.8106505 -0.352757E-05  0.296E-03    1.08       2.4  T
   4   -290.8106555 -0.507166E-05  0.107E-03    1.08       6.7  T
   5   -290.8106558 -0.230303E-06  0.328E-04    1.08      21.6  T
   6   -290.8106558 -0.547368E-08  0.194E-04    1.08      36.5  T
   7   -290.8106558 -0.131110E-07  0.104E-04    1.08      68.4  T
     SCC iter.                  ...        0 min,  0.273 sec
     gradient                   ...        0 min,  0.044 sec
 * total energy  :  -287.4073008 Eh     change       -0.9718075E-04 Eh
   gradient norm :     0.0070774 Eh/α   predicted    -0.1179266E-03 (  21.35%)
   displ. norm   :     0.4334263 α      lambda       -0.2080647E-03
   maximum displ.:     0.2048946 α      in ANC's #6, #3, #4, ...

........................................................................
.............................. CYCLE  173 ..............................
........................................................................

 iter      E             dE          RMSdq      gap      omega  full diag
   1   -290.8101947 -0.290810E+03  0.657E-03    1.08       0.0  T
   2   -290.8101951 -0.441190E-06  0.367E-03    1.09       1.9  T
   3   -290.8101940  0.107598E-05  0.365E-03    1.08       1.9  T
   4   -290.8102039 -0.982183E-05  0.131E-03    1.08       5.4  T
   5   -290.8102041 -0.239769E-06  0.577E-04    1.08      12.3  T
   6   -290.8102042 -0.655344E-07  0.139E-04    1.08      51.0  T
   7   -290.8102042  0.695570E-08  0.158E-04    1.08      44.9  T
     SCC iter.                  ...        0 min,  0.291 sec
     gradient                   ...        0 min,  0.044 sec
 * total energy  :  -287.4074337 Eh     change       -0.1329691E-03 Eh
   gradient norm :     0.0049255 Eh/α   predicted    -0.1235810E-03 (  -7.06%)
   displ. norm   :     0.3624656 α      lambda       -0.1294431E-03
   maximum displ.:     0.1761618 α      in ANC's #6, #3, #4, ...

........................................................................
.............................. CYCLE  174 ..............................
........................................................................

 iter      E             dE          RMSdq      gap      omega  full diag
   1   -290.8094764 -0.290809E+03  0.385E-03    1.08       0.0  T
   2   -290.8094749  0.146088E-05  0.278E-03    1.08       2.6  T
   3   -290.8094772 -0.230075E-05  0.256E-03    1.08       2.8  T
   4   -290.8094809 -0.367246E-05  0.687E-04    1.08      10.3  T
   5   -290.8094809 -0.458138E-07  0.312E-04    1.08      22.7  T
   6   -290.8094809 -0.162299E-07  0.144E-04    1.08      49.3  T
   7   -290.8094809 -0.838941E-08  0.872E-05    1.08      81.3  T
     SCC iter.                  ...        0 min,  0.303 sec
     gradient                   ...        0 min,  0.043 sec
 * total energy  :  -287.4075417 Eh     change       -0.1079330E-03 Eh
   gradient norm :     0.0045032 Eh/α   predicted    -0.7322566E-04 ( -32.16%)
   displ. norm   :     0.4476678 α      lambda       -0.2267953E-03
   maximum displ.:     0.2197688 α      in ANC's #6, #3, #4, ...

........................................................................
.............................. CYCLE  175 ..............................
........................................................................

 iter      E             dE          RMSdq      gap      omega  full diag
   1   -290.8119537 -0.290812E+03  0.580E-03    1.08       0.0  T
   2   -290.8119511  0.258720E-05  0.389E-03    1.08       1.8  T
   3   -290.8119552 -0.410539E-05  0.377E-03    1.08       1.9  T
   4   -290.8119648 -0.954365E-05  0.103E-03    1.08       6.9  T
   5   -290.8119649 -0.133136E-06  0.530E-04    1.08      13.4  T
   6   -290.8119649 -0.441074E-07  0.136E-04    1.08      51.9  T
   7   -290.8119649 -0.621293E-08  0.691E-05    1.08     102.5  T
     SCC iter.                  ...        0 min,  0.268 sec
     gradient                   ...        0 min,  0.043 sec
 * total energy  :  -287.4076967 Eh     change       -0.1549970E-03 Eh
   gradient norm :     0.0047208 Eh/α   predicted    -0.1361287E-03 ( -12.17%)
   displ. norm   :     0.5378184 α      lambda       -0.1843299E-03
   maximum displ.:     0.2729099 α      in ANC's #6, #3, #4, ...

........................................................................
.............................. CYCLE  176 ..............................
........................................................................

 iter      E             dE          RMSdq      gap      omega  full diag
   1   -290.8111568 -0.290811E+03  0.698E-03    1.08       0.0  T
   2   -290.8111431  0.136935E-04  0.665E-03    1.08       1.1  T
   3   -290.8111651 -0.220492E-04  0.366E-03    1.08       1.9  T
   4   -290.8111715 -0.641378E-05  0.121E-03    1.08       5.9  T
   5   -290.8111715  0.875415E-07  0.598E-04    1.08      11.8  T
   6   -290.8111716 -0.173132E-06  0.154E-04    1.08      46.1  T
   7   -290.8111716  0.687805E-10  0.101E-04    1.08      69.8  T
     SCC iter.                  ...        0 min,  0.275 sec
     gradient                   ...        0 min,  0.045 sec
 * total energy  :  -287.4078360 Eh     change       -0.1393192E-03 Eh
   gradient norm :     0.0056211 Eh/α   predicted    -0.1188275E-03 ( -14.71%)
   displ. norm   :     0.5823299 α      lambda       -0.2061225E-03
   maximum displ.:     0.2976441 α      in ANC's #6, #3, #4, ...

........................................................................
.............................. CYCLE  177 ..............................
........................................................................

 iter      E             dE          RMSdq      gap      omega  full diag
   1   -290.8089102 -0.290809E+03  0.824E-03    1.08       0.0  T
   2   -290.8088856  0.246013E-04  0.832E-03    1.07       1.0  T
   3   -290.8089202 -0.346134E-04  0.423E-03    1.07       1.7  T
   4   -290.8089278 -0.761712E-05  0.144E-03    1.07       4.9  T
   5   -290.8089278  0.490425E-07  0.695E-04    1.07      10.2  T
   6   -290.8089280 -0.262948E-06  0.186E-04    1.07      38.2  T
   7   -290.8089280  0.327361E-09  0.151E-04    1.07      47.0  T
     SCC iter.                  ...        0 min,  0.300 sec
     gradient                   ...        0 min,  0.040 sec
 * total energy  :  -287.4080148 Eh     change       -0.1788313E-03 Eh
   gradient norm :     0.0059895 Eh/α   predicted    -0.1380143E-03 ( -22.82%)
   displ. norm   :     0.6227905 α      lambda       -0.3327283E-03
   maximum displ.:     0.3173764 α      in ANC's #6, #4, #3, ...

........................................................................
.............................. CYCLE  178 ..............................
........................................................................

 iter      E             dE          RMSdq      gap      omega  full diag
   1   -290.8109571 -0.290811E+03  0.958E-03    1.07       0.0  T
   2   -290.8109236  0.334991E-04  0.970E-03    1.06       1.0  T
   3   -290.8109697 -0.461718E-04  0.497E-03    1.07       1.4  T
   4   -290.8109798 -0.100933E-04  0.182E-03    1.07       3.9  T
   5   -290.8109797  0.127735E-06  0.912E-04    1.07       7.8  T
   6   -290.8109802 -0.466721E-06  0.198E-04    1.07      35.7  T
   7   -290.8109802 -0.205830E-08  0.152E-04    1.07      46.5  T
     SCC iter.                  ...        0 min,  0.258 sec
     gradient                   ...        0 min,  0.040 sec
 * total energy  :  -287.4083006 Eh     change       -0.2857713E-03 Eh
   gradient norm :     0.0054942 Eh/α   predicted    -0.2308969E-03 ( -19.20%)
   displ. norm   :     0.7423234 α      lambda       -0.3886652E-03
   maximum displ.:     0.3719044 α      in ANC's #6, #4, #3, ...

........................................................................
.............................. CYCLE  179 ..............................
........................................................................

 iter      E             dE          RMSdq      gap      omega  full diag
   1   -290.8106619 -0.290811E+03  0.150E-02    1.06       0.0  T
   2   -290.8105816  0.802853E-04  0.154E-02    1.05       1.0  T
   3   -290.8106939 -0.112337E-03  0.726E-03    1.06       1.0  T
   4   -290.8107171 -0.231249E-04  0.281E-03    1.06       2.5  T
   5   -290.8107170  0.182794E-07  0.109E-03    1.06       6.5  T
   6   -290.8107177 -0.703696E-06  0.234E-04    1.06      30.3  T
   7   -290.8107177 -0.634566E-08  0.147E-04    1.06      48.2  T
   8   -290.8107178 -0.108060E-07  0.874E-05    1.06      81.1  T
     SCC iter.                  ...        0 min,  0.315 sec
     gradient                   ...        0 min,  0.040 sec
 * total energy  :  -287.4086478 Eh     change       -0.3472170E-03 Eh
   gradient norm :     0.0060422 Eh/α   predicted    -0.3014242E-03 ( -13.19%)
   displ. norm   :     0.7660692 α      lambda       -0.4624593E-03
   maximum displ.:     0.3626063 α      in ANC's #4, #6, #3, ...

........................................................................
.............................. CYCLE  180 ..............................
........................................................................

 iter      E             dE          RMSdq      gap      omega  full diag
   1   -290.8120929 -0.290812E+03  0.139E-02    1.05       0.0  T
   2   -290.8120298  0.630280E-04  0.131E-02    1.04       1.0  T
   3   -290.8121121 -0.822817E-04  0.791E-03    1.05       1.0  T
   4   -290.8121375 -0.253589E-04  0.289E-03    1.05       2.5  T
   5   -290.8121379 -0.433649E-06  0.923E-04    1.05       7.7  T
   6   -290.8121384 -0.494975E-06  0.202E-04    1.05      35.0  T
   7   -290.8121384 -0.540740E-08  0.111E-04    1.05      64.0  T
   8   -290.8121384 -0.383716E-08  0.758E-05    1.05      93.5  T
     SCC iter.                  ...        0 min,  0.299 sec
     gradient                   ...        0 min,  0.040 sec
 * total energy  :  -287.4090577 Eh     change       -0.4098461E-03 Eh
   gradient norm :     0.0063675 Eh/α   predicted    -0.3669317E-03 ( -10.47%)
   displ. norm   :     0.8190096 α      lambda       -0.5175449E-03
   maximum displ.:     0.3891939 α      in ANC's #4, #6, #3, ...

........................................................................
.............................. CYCLE  181 ..............................
........................................................................

 iter      E             dE          RMSdq      gap      omega  full diag
   1   -290.8115603 -0.290812E+03  0.182E-02    1.04       0.0  T
   2   -290.8114662  0.941297E-04  0.163E-02    1.03       1.0  T
   3   -290.8115787 -0.112571E-03  0.107E-02    1.04       1.0  T
   4   -290.8116235 -0.447382E-04  0.368E-03    1.04       1.9  T
   5   -290.8116245 -0.988066E-06  0.976E-04    1.04       7.3  T
   6   -290.8116250 -0.560221E-06  0.240E-04    1.04      29.5  T
   7   -290.8116250 -0.213975E-07  0.118E-04    1.04      59.9  T
   8   -290.8116250 -0.320244E-08  0.902E-05    1.04      78.6  T
     SCC iter.                  ...        0 min,  0.321 sec
     gradient                   ...        0 min,  0.039 sec
 * total energy  :  -287.4095455 Eh     change       -0.4878204E-03 Eh
   gradient norm :     0.0067114 Eh/α   predicted    -0.4323550E-03 ( -11.37%)
   displ. norm   :     0.7796610 α      lambda       -0.6623601E-03
   maximum displ.:     0.3642240 α      in ANC's #4, #6, #3, ...

........................................................................
.............................. CYCLE  182 ..............................
........................................................................

 iter      E             dE          RMSdq      gap      omega  full diag
   1   -290.8131074 -0.290813E+03  0.188E-02    1.03       0.0  T
   2   -290.8130356  0.718468E-04  0.142E-02    1.03       1.0  T
   3   -290.8131035 -0.679047E-04  0.128E-02    1.03       1.0  T
   4   -290.8131705 -0.669526E-04  0.397E-03    1.03       1.8  T
   5   -290.8131721 -0.163334E-05  0.102E-03    1.03       6.9  T
   6   -290.8131725 -0.380167E-06  0.308E-04    1.03      23.0  T
   7   -290.8131725 -0.111401E-07  0.237E-04    1.03      29.9  T
   8   -290.8131725 -0.443592E-07  0.850E-05    1.03      83.4  T
   9   -290.8131725 -0.480327E-08  0.275E-05    1.03     257.4  T
     SCC iter.                  ...        0 min,  0.354 sec
     gradient                   ...        0 min,  0.041 sec
 * total energy  :  -287.4101091 Eh     change       -0.5636372E-03 Eh
   gradient norm :     0.0079932 Eh/α   predicted    -0.5324999E-03 (  -5.52%)
   displ. norm   :     0.8222540 α      lambda       -0.6206950E-03
   maximum displ.:     0.3961718 α      in ANC's #4, #6, #3, ...

........................................................................
.............................. CYCLE  183 ..............................
........................................................................

 iter      E             dE          RMSdq      gap      omega  full diag
   1   -290.8084654 -0.290808E+03  0.174E-02    1.03       0.0  T
   2   -290.8084097  0.556134E-04  0.127E-02    1.02       1.0  T
   3   -290.8084528 -0.430539E-04  0.122E-02    1.03       1.0  T
   4   -290.8085141 -0.612606E-04  0.342E-03    1.03       2.1  T
   5   -290.8085154 -0.138151E-05  0.915E-04    1.03       7.8  T
   6   -290.8085156 -0.187948E-06  0.377E-04    1.03      18.8  T
   7   -290.8085157 -0.503048E-07  0.263E-04    1.03      26.9  T
   8   -290.8085157 -0.574192E-07  0.658E-05    1.03     107.8  T
   9   -290.8085157 -0.228152E-08  0.251E-05    1.03     281.9  T
     SCC iter.                  ...        0 min,  0.362 sec
     gradient                   ...        0 min,  0.048 sec
 * total energy  :  -287.4106309 Eh     change       -0.5217660E-03 Eh
   gradient norm :     0.0093506 Eh/α   predicted    -0.5201777E-03 (  -0.30%)
   displ. norm   :     0.6695440 α      lambda       -0.6210543E-03
   maximum displ.:     0.3178642 α      in ANC's #4, #6, #3, ...
 * RMSD in coord.:     0.8504199 α      energy gain  -0.6616900E-02 Eh

generating ANC from exact Hessian ...
Using Lindh-Hessian (1995)
 Shifting diagonal of input Hessian by   1.007561091138593E-002
 Lowest  eigenvalues of input Hessian
    0.010000    0.010024    0.010028    0.010036    0.000000    0.010046
    0.000000    0.000000    0.000000    0.000000    0.000000    0.010130
    0.010155    0.010207    0.010255    0.010311    0.010334    0.010360
 Highest eigenvalues
    2.024556    2.081546    2.161825    2.177751    2.314071    2.390907
 

........................................................................
.............................. CYCLE  184 ..............................
........................................................................

 iter      E             dE          RMSdq      gap      omega  full diag
   1   -290.8103737 -0.290810E+03  0.148E-02    1.02       0.0  T
   2   -290.8103466  0.271217E-04  0.967E-03    1.02       1.0  T
   3   -290.8103523 -0.577274E-05  0.111E-02    1.03       1.0  T
   4   -290.8104024 -0.500764E-04  0.277E-03    1.02       2.6  T
   5   -290.8104040 -0.157392E-05  0.798E-04    1.02       8.9  T
   6   -290.8104041 -0.114480E-06  0.408E-04    1.02      17.4  T
   7   -290.8104042 -0.847484E-07  0.238E-04    1.02      29.8  T
   8   -290.8104042 -0.466476E-07  0.636E-05    1.02     111.5  T
   9   -290.8104042 -0.201180E-08  0.265E-05    1.02     267.7  T
     SCC iter.                  ...        0 min,  0.381 sec
     gradient                   ...        0 min,  0.040 sec
 * total energy  :  -287.4110884 Eh     change       -0.4575490E-03 Eh
   gradient norm :     0.0084855 Eh/α   predicted     0.0000000E+00 (-100.00%)
   displ. norm   :     0.1056741 α      lambda       -0.2797427E-03
   maximum displ.:     0.0317671 α      in ANC's #2, #4, #7, ...

........................................................................
.............................. CYCLE  185 ..............................
........................................................................

 iter      E             dE          RMSdq      gap      omega  full diag
   1   -290.8133055 -0.290813E+03  0.502E-03    1.01       0.0  T
   2   -290.8132911  0.144621E-04  0.552E-03    1.02       1.3  T
   3   -290.8133116 -0.205130E-04  0.252E-03    1.01       2.8  T
   4   -290.8133145 -0.293079E-05  0.103E-03    1.02       6.9  T
   5   -290.8133145  0.215286E-07  0.427E-04    1.02      16.6  T
   6   -290.8133146 -0.129639E-06  0.139E-04    1.02      50.8  T
   7   -290.8133146 -0.739249E-09  0.780E-05    1.02      90.8  T
     SCC iter.                  ...        0 min,  0.254 sec
     gradient                   ...        0 min,  0.039 sec
 * total energy  :  -287.4112791 Eh     change       -0.1907107E-03 Eh
   gradient norm :     0.0041137 Eh/α   predicted    -0.1414806E-03 ( -25.81%)
   displ. norm   :     0.2334885 α      lambda       -0.3536173E-03
   maximum displ.:     0.0795988 α      in ANC's #2, #4, #19, ...

........................................................................
.............................. CYCLE  186 ..............................
........................................................................

 iter      E             dE          RMSdq      gap      omega  full diag
   1   -290.8159233 -0.290816E+03  0.507E-03    1.01       0.0  T
   2   -290.8159256 -0.235910E-05  0.270E-03    1.01       2.6  T
   3   -290.8159221  0.353755E-05  0.295E-03    1.01       2.4  T
   4   -290.8159282 -0.613490E-05  0.108E-03    1.01       6.5  T
   5   -290.8159287 -0.481081E-06  0.325E-04    1.01      21.8  T
   6   -290.8159287 -0.112437E-07  0.155E-04    1.01      45.9  T
   7   -290.8159287 -0.163891E-08  0.168E-04    1.01      42.2  T
     SCC iter.                  ...        0 min,  0.269 sec
     gradient                   ...        0 min,  0.039 sec
 * total energy  :  -287.4114569 Eh     change       -0.1777680E-03 Eh
   gradient norm :     0.0059129 Eh/α   predicted    -0.1864486E-03 (   4.88%)
   displ. norm   :     0.1831964 α      lambda       -0.1882452E-03
   maximum displ.:     0.0726763 α      in ANC's #2, #4, #19, ...

........................................................................
.............................. CYCLE  187 ..............................
........................................................................

 iter      E             dE          RMSdq      gap      omega  full diag
   1   -290.8154124 -0.290815E+03  0.230E-03    1.00       0.0  T
   2   -290.8154102  0.219519E-05  0.230E-03    1.00       3.1  T
   3   -290.8154138 -0.361832E-05  0.115E-03    1.00       6.2  T
   4   -290.8154147 -0.917415E-06  0.376E-04    1.00      18.9  T
   5   -290.8154147 -0.112980E-07  0.159E-04    1.00      44.7  T
   6   -290.8154147  0.187049E-08  0.129E-04    1.00      54.9  T
     SCC iter.                  ...        0 min,  0.222 sec
     gradient                   ...        0 min,  0.054 sec
 * total energy  :  -287.4116057 Eh     change       -0.1487906E-03 Eh
   gradient norm :     0.0059825 Eh/α   predicted    -0.9728187E-04 ( -34.62%)
   displ. norm   :     0.4330532 α      lambda       -0.3963120E-03
   maximum displ.:     0.1763480 α      in ANC's #2, #4, #19, ...

........................................................................
.............................. CYCLE  188 ..............................
........................................................................

 iter      E             dE          RMSdq      gap      omega  full diag
   1   -290.8130028 -0.290813E+03  0.482E-03    0.99       0.0  T
   2   -290.8129853  0.174963E-04  0.603E-03    0.99       1.2  T
   3   -290.8130130 -0.276765E-04  0.197E-03    0.99       3.6  T
   4   -290.8130138 -0.810140E-06  0.118E-03    0.99       6.0  T
   5   -290.8130142 -0.419847E-06  0.387E-04    0.99      18.3  T
   6   -290.8130142  0.171673E-07  0.318E-04    0.99      22.3  T
   7   -290.8130142 -0.640132E-07  0.122E-04    0.99      58.0  T
   8   -290.8130143 -0.742523E-08  0.340E-05    0.99     208.6  T
     SCC iter.                  ...        0 min,  0.265 sec
     gradient                   ...        0 min,  0.037 sec
 * total energy  :  -287.4119003 Eh     change       -0.2946262E-03 Eh
   gradient norm :     0.0064046 Eh/α   predicted    -0.2353177E-03 ( -20.13%)
   displ. norm   :     0.5243243 α      lambda       -0.4108850E-03
   maximum displ.:     0.2214300 α      in ANC's #2, #4, #7, ...

........................................................................
.............................. CYCLE  189 ..............................
........................................................................

 iter      E             dE          RMSdq      gap      omega  full diag
   1   -290.8104366 -0.290810E+03  0.595E-03    0.98       0.0  T
   2   -290.8104285  0.802235E-05  0.574E-03    0.98       1.2  T
   3   -290.8104408 -0.123184E-04  0.291E-03    0.98       2.4  T
   4   -290.8104443 -0.341481E-05  0.107E-03    0.98       6.6  T
   5   -290.8104444 -0.179816E-06  0.518E-04    0.98      13.7  T
   6   -290.8104446 -0.120906E-06  0.223E-04    0.98      31.8  T
   7   -290.8104446 -0.226694E-07  0.130E-04    0.98      54.6  T
   8   -290.8104446 -0.121134E-07  0.329E-05    0.98     215.4  T
     SCC iter.                  ...        0 min,  0.267 sec
     gradient                   ...        0 min,  0.041 sec
 * total energy  :  -287.4122135 Eh     change       -0.3132109E-03 Eh
   gradient norm :     0.0070405 Eh/α   predicted    -0.2619228E-03 ( -16.37%)
   displ. norm   :     0.5484682 α      lambda       -0.4099730E-03
   maximum displ.:     0.2400132 α      in ANC's #2, #4, #7, ...

........................................................................
.............................. CYCLE  190 ..............................
........................................................................

 iter      E             dE          RMSdq      gap      omega  full diag
   1   -290.8101837 -0.290810E+03  0.738E-03    0.98       0.0  T
   2   -290.8101692  0.145609E-04  0.681E-03    0.97       1.0  T
   3   -290.8101875 -0.182933E-04  0.405E-03    0.97       1.8  T
   4   -290.8101942 -0.675811E-05  0.129E-03    0.97       5.5  T
   5   -290.8101942 -0.100446E-07  0.630E-04    0.97      11.3  T
   6   -290.8101944 -0.162725E-06  0.289E-04    0.97      24.6  T
   7   -290.8101945 -0.560081E-07  0.152E-04    0.97      46.6  T
   8   -290.8101945 -0.113333E-07  0.301E-05    0.97     235.2  T
     SCC iter.                  ...        0 min,  0.263 sec
     gradient                   ...        0 min,  0.044 sec
 * total energy  :  -287.4125435 Eh     change       -0.3299155E-03 Eh
   gradient norm :     0.0060934 Eh/α   predicted    -0.2666549E-03 ( -19.17%)
   displ. norm   :     0.5914065 α      lambda       -0.4606517E-03
   maximum displ.:     0.2683785 α      in ANC's #2, #4, #7, ...

........................................................................
.............................. CYCLE  191 ..............................
........................................................................

 iter      E             dE          RMSdq      gap      omega  full diag
   1   -290.8132198 -0.290813E+03  0.858E-03    0.97       0.0  T
   2   -290.8132051  0.146792E-04  0.693E-03    0.96       1.0  T
   3   -290.8132199 -0.147984E-04  0.516E-03    0.96       1.4  T
   4   -290.8132310 -0.110862E-04  0.150E-03    0.96       4.7  T
   5   -290.8132311 -0.425139E-07  0.643E-04    0.96      11.0  T
   6   -290.8132313 -0.244383E-06  0.212E-04    0.96      33.4  T
   7   -290.8132313 -0.119098E-07  0.144E-04    0.96      49.3  T
   8   -290.8132313 -0.154405E-07  0.362E-05    0.96     195.6  T
     SCC iter.                  ...        0 min,  0.285 sec
     gradient                   ...        0 min,  0.042 sec
 * total energy  :  -287.4129020 Eh     change       -0.3585280E-03 Eh
   gradient norm :     0.0058122 Eh/α   predicted    -0.3109009E-03 ( -13.28%)
   displ. norm   :     0.6176206 α      lambda       -0.4427347E-03
   maximum displ.:     0.2851656 α      in ANC's #2, #4, #7, ...

........................................................................
.............................. CYCLE  192 ..............................
........................................................................

 iter      E             dE          RMSdq      gap      omega  full diag
   1   -290.8160732 -0.290816E+03  0.110E-02    0.96       0.0  T
   2   -290.8160490  0.242011E-04  0.892E-03    0.95       1.0  T
   3   -290.8160731 -0.241381E-04  0.655E-03    0.96       1.1  T
   4   -290.8160891 -0.159881E-04  0.198E-03    0.96       3.6  T
   5   -290.8160898 -0.649439E-06  0.696E-04    0.96      10.2  T
   6   -290.8160900 -0.180114E-06  0.389E-04    0.96      18.2  T
   7   -290.8160901 -0.128883E-06  0.140E-04    0.96      50.5  T
   8   -290.8160901 -0.106570E-07  0.384E-05    0.96     184.4  T
     SCC iter.                  ...        0 min,  0.274 sec
     gradient                   ...        0 min,  0.044 sec
 * total energy  :  -287.4132725 Eh     change       -0.3705384E-03 Eh
   gradient norm :     0.0055827 Eh/α   predicted    -0.3058102E-03 ( -17.47%)
   displ. norm   :     0.6665905 α      lambda       -0.4640259E-03
   maximum displ.:     0.3126909 α      in ANC's #2, #4, #7, ...

........................................................................
.............................. CYCLE  193 ..............................
........................................................................

 iter      E             dE          RMSdq      gap      omega  full diag
   1   -290.8182280 -0.290818E+03  0.119E-02    0.96       0.0  T
   2   -290.8182055  0.225376E-04  0.839E-03    0.95       1.0  T
   3   -290.8182198 -0.143479E-04  0.798E-03    0.96       1.0  T
   4   -290.8182448 -0.249305E-04  0.225E-03    0.96       3.1  T
   5   -290.8182454 -0.662479E-06  0.677E-04    0.95      10.5  T
   6   -290.8182457 -0.254352E-06  0.264E-04    0.95      26.9  T
   7   -290.8182457 -0.384780E-07  0.153E-04    0.95      46.2  T
   8   -290.8182457 -0.185642E-07  0.430E-05    0.95     164.8  T
     SCC iter.                  ...        0 min,  0.307 sec
     gradient                   ...        0 min,  0.037 sec
 * total energy  :  -287.4136876 Eh     change       -0.4150585E-03 Eh
   gradient norm :     0.0056231 Eh/α   predicted    -0.3351098E-03 ( -19.26%)
   displ. norm   :     0.7167066 α      lambda       -0.5257307E-03
   maximum displ.:     0.3389381 α      in ANC's #2, #4, #7, ...

........................................................................
.............................. CYCLE  194 ..............................
........................................................................

 iter      E             dE          RMSdq      gap      omega  full diag
   1   -290.8190070 -0.290819E+03  0.139E-02    0.96       0.0  T
   2   -290.8189763  0.306248E-04  0.101E-02    0.95       1.0  T
   3   -290.8190002 -0.238815E-04  0.900E-03    0.96       1.0  T
   4   -290.8190315 -0.312503E-04  0.274E-03    0.96       2.6  T
   5   -290.8190321 -0.591350E-06  0.849E-04    0.95       8.3  T
   6   -290.8190324 -0.368134E-06  0.365E-04    0.95      19.4  T
   7   -290.8190325 -0.945167E-07  0.183E-04    0.95      38.7  T
   8   -290.8190325 -0.278245E-07  0.444E-05    0.95     159.6  T
     SCC iter.                  ...        0 min,  0.293 sec
     gradient                   ...        0 min,  0.055 sec
 * total energy  :  -287.4141563 Eh     change       -0.4686963E-03 Eh
   gradient norm :     0.0052565 Eh/α   predicted    -0.3978914E-03 ( -15.11%)
   displ. norm   :     0.7575855 α      lambda       -0.5363257E-03
   maximum displ.:     0.3608232 α      in ANC's #2, #4, #7, ...

........................................................................
.............................. CYCLE  195 ..............................
........................................................................

 iter      E             dE          RMSdq      gap      omega  full diag
   1   -290.8169786 -0.290817E+03  0.132E-02    0.96       0.0  T
   2   -290.8169502  0.284106E-04  0.959E-03    0.95       1.0  T
   3   -290.8169713 -0.210622E-04  0.866E-03    0.96       1.0  T
   4   -290.8170010 -0.297029E-04  0.261E-03    0.95       2.7  T
   5   -290.8170017 -0.690890E-06  0.806E-04    0.95       8.8  T
   6   -290.8170020 -0.337306E-06  0.333E-04    0.95      21.3  T
   7   -290.8170021 -0.627916E-07  0.197E-04    0.95      35.9  T
   8   -290.8170021 -0.325257E-07  0.465E-05    0.95     152.4  T
     SCC iter.                  ...        0 min,  0.295 sec
     gradient                   ...        0 min,  0.038 sec
 * total energy  :  -287.4146339 Eh     change       -0.4776370E-03 Eh
   gradient norm :     0.0056188 Eh/α   predicted    -0.4220761E-03 ( -11.63%)
   displ. norm   :     0.7477521 α      lambda       -0.5523594E-03
   maximum displ.:     0.3537816 α      in ANC's #2, #4, #7, ...

........................................................................
.............................. CYCLE  196 ..............................
........................................................................

 iter      E             dE          RMSdq      gap      omega  full diag
   1   -290.8180287 -0.290818E+03  0.124E-02    0.96       0.0  T
   2   -290.8180058  0.228972E-04  0.939E-03    0.95       1.0  T
   3   -290.8180274 -0.215987E-04  0.767E-03    0.96       1.0  T
   4   -290.8180485 -0.210871E-04  0.242E-03    0.95       2.9  T
   5   -290.8180491 -0.540724E-06  0.986E-04    0.95       7.2  T
   6   -290.8180495 -0.442004E-06  0.451E-04    0.95      15.7  T
   7   -290.8180497 -0.158975E-06  0.191E-04    0.95      37.2  T
   8   -290.8180497 -0.304421E-07  0.424E-05    0.95     167.1  T
     SCC iter.                  ...        0 min,  0.293 sec
     gradient                   ...        0 min,  0.037 sec
 * total energy  :  -287.4150973 Eh     change       -0.4633734E-03 Eh
   gradient norm :     0.0057678 Eh/α   predicted    -0.4306028E-03 (  -7.07%)
   displ. norm   :     0.7598631 α      lambda       -0.5580022E-03
   maximum displ.:     0.3646920 α      in ANC's #2, #4, #7, ...

........................................................................
.............................. CYCLE  197 ..............................
........................................................................

 iter      E             dE          RMSdq      gap      omega  full diag
   1   -290.8129110 -0.290813E+03  0.903E-03    0.95       0.0  T
   2   -290.8128929  0.181286E-04  0.847E-03    0.94       1.0  T
   3   -290.8129179 -0.250077E-04  0.471E-03    0.94       1.5  T
   4   -290.8129274 -0.946438E-05  0.164E-03    0.94       4.3  T
   5   -290.8129272  0.148532E-06  0.911E-04    0.94       7.8  T
   6   -290.8129277 -0.464267E-06  0.351E-04    0.94      20.2  T
   7   -290.8129278 -0.654375E-07  0.190E-04    0.94      37.4  T
   8   -290.8129278 -0.300374E-07  0.365E-05    0.94     194.1  T
     SCC iter.                  ...        0 min,  0.286 sec
     gradient                   ...        0 min,  0.038 sec
 * total energy  :  -287.4155700 Eh     change       -0.4727497E-03 Eh
   gradient norm :     0.0073381 Eh/α   predicted    -0.4400945E-03 (  -6.91%)
   displ. norm   :     0.7063086 α      lambda       -0.5624725E-03
   maximum displ.:     0.3330629 α      in ANC's #2, #4, #7, ...

........................................................................
.............................. CYCLE  198 ..............................
........................................................................

 iter      E             dE          RMSdq      gap      omega  full diag
   1   -290.8142342 -0.290814E+03  0.451E-03    0.94       0.0  T
   2   -290.8142313  0.285810E-05  0.448E-03    0.93       1.6  T
   3   -290.8142379 -0.661056E-05  0.195E-03    0.93       3.6  T
   4   -290.8142396 -0.163759E-05  0.811E-04    0.93       8.7  T
   5   -290.8142398 -0.213772E-06  0.456E-04    0.93      15.5  T
   6   -290.8142399 -0.116760E-06  0.178E-04    0.93      39.7  T
   7   -290.8142399 -0.930919E-08  0.996E-05    0.93      71.2  T
     SCC iter.                  ...        0 min,  0.237 sec
     gradient                   ...        0 min,  0.056 sec
 * total energy  :  -287.4160602 Eh     change       -0.4901152E-03 Eh
   gradient norm :     0.0082503 Eh/α   predicted    -0.4215415E-03 ( -13.99%)
   displ. norm   :     0.7235718 α      lambda       -0.6234731E-03
   maximum displ.:     0.3429336 α      in ANC's #2, #4, #7, ...

........................................................................
.............................. CYCLE  199 ..............................
........................................................................

 iter      E             dE          RMSdq      gap      omega  full diag
   1   -290.8147868 -0.290815E+03  0.596E-03    0.92       0.0  T
   2   -290.8147876 -0.753482E-06  0.516E-03    0.92       1.4  T
   3   -290.8147933 -0.568429E-05  0.281E-03    0.92       2.5  T
   4   -290.8147955 -0.227981E-05  0.162E-03    0.92       4.4  T
   5   -290.8147962 -0.632990E-06  0.683E-04    0.92      10.4  T
   6   -290.8147965 -0.302075E-06  0.331E-04    0.92      21.4  T
   7   -290.8147966 -0.722953E-07  0.142E-04    0.92      49.8  T
   8   -290.8147966 -0.160289E-07  0.345E-05    0.92     205.6  T
     SCC iter.                  ...        0 min,  0.291 sec
     gradient                   ...        0 min,  0.043 sec
 * total energy  :  -287.4165860 Eh     change       -0.5257959E-03 Eh
   gradient norm :     0.0077972 Eh/α   predicted    -0.4749508E-03 (  -9.67%)
   displ. norm   :     0.7120140 α      lambda       -0.6421917E-03
   maximum displ.:     0.3147824 α      in ANC's #2, #4, #9, ...

........................................................................
.............................. CYCLE  200 ..............................
........................................................................

 iter      E             dE          RMSdq      gap      omega  full diag
   1   -290.8205632 -0.290821E+03  0.768E-03    0.91       0.0  T
   2   -290.8205691 -0.590709E-05  0.413E-03    0.91       1.7  T
   3   -290.8205656  0.350765E-05  0.276E-03    0.91       2.6  T
   4   -290.8205655  0.694085E-07  0.288E-03    0.91       2.5  T
   5   -290.8205712 -0.566453E-05  0.391E-04    0.91      18.1  T
   6   -290.8205712 -0.121454E-07  0.288E-04    0.91      24.6  T
   7   -290.8205712 -0.290644E-07  0.168E-04    0.91      42.2  T
   8   -290.8205712 -0.173578E-07  0.365E-05    0.91     194.1  T
     SCC iter.                  ...        0 min,  0.278 sec
     gradient                   ...        0 min,  0.058 sec
 * total energy  :  -287.4170866 Eh     change       -0.5006537E-03 Eh
   gradient norm :     0.0075689 Eh/α   predicted    -0.4838837E-03 (  -3.35%)
   displ. norm   :     0.7866564 α      lambda       -0.5851739E-03
   maximum displ.:     0.3714767 α      in ANC's #2, #4, #7, ...

........................................................................
.............................. CYCLE  201 ..............................
........................................................................

 iter      E             dE          RMSdq      gap      omega  full diag
   1   -290.8172207 -0.290817E+03  0.433E-03    0.91       0.0  T
   2   -290.8172166  0.413117E-05  0.422E-03    0.91       1.7  T
   3   -290.8172226 -0.602763E-05  0.234E-03    0.91       3.0  T
   4   -290.8172246 -0.198641E-05  0.900E-04    0.91       7.9  T
   5   -290.8172246 -0.674389E-07  0.424E-04    0.91      16.7  T
   6   -290.8172247 -0.482855E-07  0.312E-04    0.91      22.7  T
   7   -290.8172248 -0.773224E-07  0.856E-05    0.91      82.8  T
   8   -290.8172248 -0.430936E-08  0.236E-05    0.91     300.4  T
     SCC iter.                  ...        0 min,  0.273 sec
     gradient                   ...        0 min,  0.055 sec
 * total energy  :  -287.4175894 Eh     change       -0.5027690E-03 Eh
   gradient norm :     0.0067589 Eh/α   predicted    -0.4736519E-03 (  -5.79%)
   displ. norm   :     0.6862715 α      lambda       -0.6248535E-03
   maximum displ.:     0.2990670 α      in ANC's #4, #2, #9, ...

........................................................................
.............................. CYCLE  202 ..............................
........................................................................

 iter      E             dE          RMSdq      gap      omega  full diag
   1   -290.8212149 -0.290821E+03  0.492E-03    0.91       0.0  T
   2   -290.8212163 -0.141750E-05  0.336E-03    0.91       2.1  T
   3   -290.8212150  0.123514E-05  0.312E-03    0.91       2.3  T
   4   -290.8212201 -0.507516E-05  0.133E-03    0.91       5.3  T
   5   -290.8212203 -0.240617E-06  0.460E-04    0.91      15.4  T
   6   -290.8212204 -0.752528E-07  0.275E-04    0.91      25.7  T
   7   -290.8212205 -0.356561E-07  0.173E-04    0.91      41.0  T
   8   -290.8212205 -0.261504E-07  0.394E-05    0.91     180.0  T
     SCC iter.                  ...        0 min,  0.267 sec
     gradient                   ...        0 min,  0.037 sec
 * total energy  :  -287.4180635 Eh     change       -0.4741044E-03 Eh
   gradient norm :     0.0080335 Eh/α   predicted    -0.4595733E-03 (  -3.06%)
   displ. norm   :     0.7876591 α      lambda       -0.5649212E-03
   maximum displ.:     0.3627050 α      in ANC's #2, #4, #9, ...

........................................................................
.............................. CYCLE  203 ..............................
........................................................................

 iter      E             dE          RMSdq      gap      omega  full diag
   1   -290.8161447 -0.290816E+03  0.799E-03    0.91       0.0  T
   2   -290.8161298  0.149098E-04  0.704E-03    0.90       1.0  T
   3   -290.8161464 -0.166451E-04  0.468E-03    0.91       1.5  T
   4   -290.8161558 -0.935513E-05  0.151E-03    0.91       4.7  T
   5   -290.8161558  0.171185E-07  0.669E-04    0.91      10.6  T
   6   -290.8161560 -0.264210E-06  0.286E-04    0.91      24.8  T
   7   -290.8161561 -0.407198E-07  0.149E-04    0.91      47.5  T
   8   -290.8161561 -0.172727E-07  0.335E-05    0.91     211.8  T
     SCC iter.                  ...        0 min,  0.295 sec
     gradient                   ...        0 min,  0.038 sec
 * total energy  :  -287.4185218 Eh     change       -0.4583622E-03 Eh
   gradient norm :     0.0077175 Eh/α   predicted    -0.4577058E-03 (  -0.14%)
   displ. norm   :     0.6544302 α      lambda       -0.5096696E-03
   maximum displ.:     0.2920610 α      in ANC's #4, #2, #1, ...

........................................................................
.............................. CYCLE  204 ..............................
........................................................................

 iter      E             dE          RMSdq      gap      omega  full diag
   1   -290.8193361 -0.290819E+03  0.689E-03    0.91       0.0  T
   2   -290.8193310  0.508026E-05  0.425E-03    0.91       1.7  T
   3   -290.8193297  0.134912E-05  0.529E-03    0.91       1.3  T
   4   -290.8193420 -0.123532E-04  0.137E-03    0.91       5.2  T
   5   -290.8193422 -0.122577E-06  0.403E-04    0.91      17.6  T
   6   -290.8193422 -0.204768E-07  0.228E-04    0.91      31.1  T
   7   -290.8193422 -0.277720E-07  0.127E-04    0.91      56.0  T
   8   -290.8193422 -0.133002E-07  0.233E-05    0.91     304.6  T
     SCC iter.                  ...        0 min,  0.295 sec
     gradient                   ...        0 min,  0.040 sec
 * total energy  :  -287.4189293 Eh     change       -0.4074645E-03 Eh
   gradient norm :     0.0082491 Eh/α   predicted    -0.3639765E-03 ( -10.67%)
   displ. norm   :     0.7472664 α      lambda       -0.4864009E-03
   maximum displ.:     0.3446704 α      in ANC's #4, #2, #1, ...

........................................................................
.............................. CYCLE  205 ..............................
........................................................................

 iter      E             dE          RMSdq      gap      omega  full diag
   1   -290.8189462 -0.290819E+03  0.634E-03    0.92       0.0  T
   2   -290.8189372  0.893798E-05  0.518E-03    0.92       1.4  T
   3   -290.8189455 -0.826274E-05  0.442E-03    0.92       1.6  T
   4   -290.8189527 -0.725731E-05  0.131E-03    0.92       5.4  T
   5   -290.8189527  0.165954E-07  0.622E-04    0.92      11.4  T
   6   -290.8189529 -0.128168E-06  0.340E-04    0.92      20.8  T
   7   -290.8189530 -0.101999E-06  0.899E-05    0.92      78.8  T
   8   -290.8189530 -0.406430E-08  0.189E-05    0.92     374.5  T
     SCC iter.                  ...        0 min,  0.302 sec
     gradient                   ...        0 min,  0.041 sec
 * total energy  :  -287.4193272 Eh     change       -0.3979238E-03 Eh
   gradient norm :     0.0069183 Eh/α   predicted    -0.3790072E-03 (  -4.75%)
   displ. norm   :     0.6962163 α      lambda       -0.4806130E-03
   maximum displ.:     0.3169408 α      in ANC's #4, #2, #1, ...

........................................................................
.............................. CYCLE  206 ..............................
........................................................................

 iter      E             dE          RMSdq      gap      omega  full diag
   1   -290.8234127 -0.290823E+03  0.631E-03    0.92       0.0  T
   2   -290.8234058  0.695345E-05  0.478E-03    0.92       1.5  T
   3   -290.8234113 -0.556179E-05  0.452E-03    0.92       1.6  T
   4   -290.8234194 -0.806501E-05  0.144E-03    0.92       4.9  T
   5   -290.8234192  0.168074E-06  0.799E-04    0.92       8.9  T
   6   -290.8234195 -0.308618E-06  0.326E-04    0.92      21.7  T
   7   -290.8234196 -0.682418E-07  0.110E-04    0.92      64.3  T
   8   -290.8234196 -0.751510E-08  0.274E-05    0.92     259.0  T
     SCC iter.                  ...        0 min,  0.298 sec
     gradient                   ...        0 min,  0.041 sec
 * total energy  :  -287.4197090 Eh     change       -0.3817723E-03 Eh
   gradient norm :     0.0061058 Eh/α   predicted    -0.3567944E-03 (  -6.54%)
   displ. norm   :     0.7581399 α      lambda       -0.4196638E-03
   maximum displ.:     0.3537301 α      in ANC's #4, #2, #1, ...

........................................................................
.............................. CYCLE  207 ..............................
........................................................................

 iter      E             dE          RMSdq      gap      omega  full diag
   1   -290.8233619 -0.290823E+03  0.463E-03    0.92       0.0  T
   2   -290.8233579  0.403303E-05  0.336E-03    0.92       2.1  T
   3   -290.8233600 -0.213088E-05  0.372E-03    0.92       1.9  T
   4   -290.8233659 -0.594955E-05  0.124E-03    0.92       5.7  T
   5   -290.8233662 -0.286484E-06  0.503E-04    0.92      14.1  T
   6   -290.8233663 -0.620446E-07  0.249E-04    0.92      28.4  T
   7   -290.8233663 -0.382740E-07  0.906E-05    0.92      78.2  T
   8   -290.8233663 -0.587215E-08  0.233E-05    0.92     304.2  T
     SCC iter.                  ...        0 min,  0.284 sec
     gradient                   ...        0 min,  0.040 sec
 * total energy  :  -287.4200767 Eh     change       -0.3677209E-03 Eh
   gradient norm :     0.0057828 Eh/α   predicted    -0.3304392E-03 ( -10.14%)
   displ. norm   :     0.7077592 α      lambda       -0.4633925E-03
   maximum displ.:     0.3230450 α      in ANC's #4, #2, #1, ...

........................................................................
.............................. CYCLE  208 ..............................
........................................................................

 iter      E             dE          RMSdq      gap      omega  full diag
   1   -290.8299617 -0.290830E+03  0.687E-03    0.93       0.0  T
   2   -290.8299522  0.943749E-05  0.541E-03    0.92       1.3  T
   3   -290.8299593 -0.702247E-05  0.472E-03    0.93       1.5  T
   4   -290.8299692 -0.989411E-05  0.135E-03    0.92       5.3  T
   5   -290.8299689  0.254427E-06  0.803E-04    0.92       8.8  T
   6   -290.8299693 -0.429095E-06  0.208E-04    0.92      34.1  T
   7   -290.8299693 -0.653915E-08  0.119E-04    0.92      59.8  T
   8   -290.8299694 -0.105080E-07  0.367E-05    0.92     193.0  T
     SCC iter.                  ...        0 min,  0.295 sec
     gradient                   ...        0 min,  0.042 sec
 * total energy  :  -287.4204152 Eh     change       -0.3384481E-03 Eh
   gradient norm :     0.0073580 Eh/α   predicted    -0.3477653E-03 (   2.75%)
   displ. norm   :     0.8056412 α      lambda       -0.4546065E-03
   maximum displ.:     0.3782873 α      in ANC's #4, #2, #1, ...

........................................................................
.............................. CYCLE  209 ..............................
........................................................................

 iter      E             dE          RMSdq      gap      omega  full diag
   1   -290.8220192 -0.290822E+03  0.606E-03    0.92       0.0  T
   2   -290.8220103  0.889478E-05  0.586E-03    0.92       1.2  T
   3   -290.8220219 -0.115986E-04  0.344E-03    0.92       2.1  T
   4   -290.8220263 -0.435753E-05  0.132E-03    0.92       5.4  T
   5   -290.8220263 -0.814979E-07  0.682E-04    0.92      10.4  T
   6   -290.8220266 -0.262140E-06  0.337E-04    0.92      21.0  T
   7   -290.8220267 -0.678014E-07  0.138E-04    0.92      51.5  T
   8   -290.8220267 -0.145442E-07  0.324E-05    0.92     218.5  T
     SCC iter.                  ...        0 min,  0.295 sec
     gradient                   ...        0 min,  0.044 sec
 * total energy  :  -287.4207597 Eh     change       -0.3445015E-03 Eh
   gradient norm :     0.0065395 Eh/α   predicted    -0.3748403E-03 (   8.81%)
   displ. norm   :     0.6691203 α      lambda       -0.3447437E-03
   maximum displ.:     0.3075952 α      in ANC's #4, #2, #1, ...

........................................................................
.............................. CYCLE  210 ..............................
........................................................................

 iter      E             dE          RMSdq      gap      omega  full diag
   1   -290.8220449 -0.290822E+03  0.436E-03    0.93       0.0  T
   2   -290.8220404  0.452813E-05  0.350E-03    0.93       2.0  T
   3   -290.8220439 -0.348146E-05  0.329E-03    0.93       2.2  T
   4   -290.8220481 -0.421065E-05  0.984E-04    0.93       7.2  T
   5   -290.8220482 -0.869958E-07  0.440E-04    0.93      16.1  T
   6   -290.8220483 -0.562815E-07  0.252E-04    0.93      28.1  T
   7   -290.8220483 -0.472750E-07  0.804E-05    0.93      88.1  T
   8   -290.8220483 -0.371591E-08  0.147E-05    0.93     482.6  T
     SCC iter.                  ...        0 min,  0.289 sec
     gradient                   ...        0 min,  0.042 sec
 * total energy  :  -287.4210495 Eh     change       -0.2898136E-03 Eh
   gradient norm :     0.0062187 Eh/α   predicted    -0.2495528E-03 ( -13.89%)
   displ. norm   :     0.6874456 α      lambda       -0.4212621E-03
   maximum displ.:     0.3123580 α      in ANC's #4, #1, #2, ...

........................................................................
.............................. CYCLE  211 ..............................
........................................................................

 iter      E             dE          RMSdq      gap      omega  full diag
   1   -290.8237905 -0.290824E+03  0.549E-03    0.93       0.0  T
   2   -290.8237852  0.535413E-05  0.439E-03    0.93       1.6  T
   3   -290.8237902 -0.506463E-05  0.400E-03    0.93       1.8  T
   4   -290.8237970 -0.681303E-05  0.113E-03    0.93       6.3  T
   5   -290.8237971 -0.883745E-07  0.519E-04    0.93      13.7  T
   6   -290.8237971 -0.138941E-07  0.349E-04    0.93      20.3  T
   7   -290.8237972 -0.908337E-07  0.133E-04    0.93      53.4  T
   8   -290.8237972 -0.139074E-07  0.280E-05    0.93     253.0  T
     SCC iter.                  ...        0 min,  0.300 sec
     gradient                   ...        0 min,  0.041 sec
 * total energy  :  -287.4213845 Eh     change       -0.3350429E-03 Eh
   gradient norm :     0.0059412 Eh/α   predicted    -0.3101779E-03 (  -7.42%)
   displ. norm   :     0.7126361 α      lambda       -0.4039471E-03
   maximum displ.:     0.3212431 α      in ANC's #4, #1, #2, ...

........................................................................
.............................. CYCLE  212 ..............................
........................................................................

 iter      E             dE          RMSdq      gap      omega  full diag
   1   -290.8267603 -0.290827E+03  0.616E-03    0.93       0.0  T
   2   -290.8267528  0.748807E-05  0.538E-03    0.93       1.3  T
   3   -290.8267626 -0.970444E-05  0.370E-03    0.93       1.9  T
   4   -290.8267689 -0.639385E-05  0.113E-03    0.93       6.3  T
   5   -290.8267688  0.184279E-06  0.651E-04    0.93      10.9  T
   6   -290.8267690 -0.269256E-06  0.190E-04    0.93      37.3  T
   7   -290.8267690 -0.498551E-08  0.122E-04    0.93      58.0  T
     SCC iter.                  ...        0 min,  0.281 sec
     gradient                   ...        0 min,  0.040 sec
 * total energy  :  -287.4216988 Eh     change       -0.3142899E-03 Eh
   gradient norm :     0.0061155 Eh/α   predicted    -0.3045527E-03 (  -3.10%)
   displ. norm   :     0.7752666 α      lambda       -0.3972518E-03
   maximum displ.:     0.3502752 α      in ANC's #4, #1, #2, ...

........................................................................
.............................. CYCLE  213 ..............................
........................................................................

 iter      E             dE          RMSdq      gap      omega  full diag
   1   -290.8259351 -0.290826E+03  0.438E-03    0.93       0.0  T
   2   -290.8259348  0.387283E-06  0.296E-03    0.93       2.4  T
   3   -290.8259360 -0.120589E-05  0.315E-03    0.93       2.2  T
   4   -290.8259414 -0.544308E-05  0.831E-04    0.93       8.5  T
   5   -290.8259415 -0.678340E-07  0.509E-04    0.93      13.9  T
   6   -290.8259415 -0.359332E-07  0.233E-04    0.93      30.4  T
   7   -290.8259415 -0.799201E-08  0.173E-04    0.93      40.9  T
   8   -290.8259415 -0.258898E-07  0.360E-05    0.93     196.9  T
     SCC iter.                  ...        0 min,  0.302 sec
     gradient                   ...        0 min,  0.040 sec
 * total energy  :  -287.4220488 Eh     change       -0.3499444E-03 Eh
   gradient norm :     0.0064774 Eh/α   predicted    -0.3180112E-03 (  -9.13%)
   displ. norm   :     0.7092227 α      lambda       -0.4618455E-03
   maximum displ.:     0.3211344 α      in ANC's #1, #4, #2, ...

........................................................................
.............................. CYCLE  214 ..............................
........................................................................

 iter      E             dE          RMSdq      gap      omega  full diag
   1   -290.8307640 -0.290831E+03  0.663E-03    0.93       0.0  T
   2   -290.8307699 -0.584881E-05  0.453E-03    0.93       1.6  T
   3   -290.8307741 -0.418868E-05  0.204E-03    0.93       3.5  T
   4   -290.8307737  0.397500E-06  0.154E-03    0.93       4.6  T
   5   -290.8307748 -0.109757E-05  0.757E-04    0.93       9.4  T
   6   -290.8307752 -0.452539E-06  0.151E-04    0.93      46.9  T
   7   -290.8307752 -0.344670E-08  0.927E-05    0.93      76.5  T
     SCC iter.                  ...        0 min,  0.256 sec
     gradient                   ...        0 min,  0.040 sec
 * total energy  :  -287.4223911 Eh     change       -0.3423395E-03 Eh
   gradient norm :     0.0073452 Eh/α   predicted    -0.3470806E-03 (   1.38%)
   displ. norm   :     0.7711239 α      lambda       -0.4657266E-03
   maximum displ.:     0.3521231 α      in ANC's #4, #1, #2, ...

........................................................................
.............................. CYCLE  215 ..............................
........................................................................

 iter      E             dE          RMSdq      gap      omega  full diag
   1   -290.8241737 -0.290824E+03  0.648E-03    0.93       0.0  T
   2   -290.8241743 -0.622746E-06  0.397E-03    0.93       1.8  T
   3   -290.8241707  0.364232E-05  0.416E-03    0.93       1.7  T
   4   -290.8241823 -0.115852E-04  0.163E-03    0.93       4.4  T
   5   -290.8241828 -0.528713E-06  0.714E-04    0.93       9.9  T
   6   -290.8241829 -0.733832E-07  0.171E-04    0.93      41.4  T
   7   -290.8241829 -0.102807E-08  0.136E-04    0.93      52.0  T
     SCC iter.                  ...        0 min,  0.263 sec
     gradient                   ...        0 min,  0.054 sec
 * total energy  :  -287.4227139 Eh     change       -0.3227651E-03 Eh
   gradient norm :     0.0091387 Eh/α   predicted    -0.3713353E-03 (  15.05%)
   displ. norm   :     0.6409877 α      lambda       -0.3728826E-03
   maximum displ.:     0.2955493 α      in ANC's #1, #4, #2, ...

........................................................................
.............................. CYCLE  216 ..............................
........................................................................

 iter      E             dE          RMSdq      gap      omega  full diag
   1   -290.8229932 -0.290823E+03  0.451E-03    0.93       0.0  T
   2   -290.8229915  0.173287E-05  0.339E-03    0.93       2.1  T
   3   -290.8229921 -0.558243E-06  0.299E-03    0.93       2.4  T
   4   -290.8229975 -0.548005E-05  0.104E-03    0.93       6.8  T
   5   -290.8229978 -0.224060E-06  0.326E-04    0.93      21.8  T
   6   -290.8229978 -0.493770E-08  0.144E-04    0.93      49.1  T
   7   -290.8229978 -0.100873E-07  0.863E-05    0.93      82.2  T
     SCC iter.                  ...        0 min,  0.241 sec
     gradient                   ...        0 min,  0.037 sec
 * total energy  :  -287.4229926 Eh     change       -0.2787724E-03 Eh
   gradient norm :     0.0077800 Eh/α   predicted    -0.2630499E-03 (  -5.64%)
   displ. norm   :     0.6192498 α      lambda       -0.4143010E-03
   maximum displ.:     0.2896666 α      in ANC's #1, #4, #10, ...

........................................................................
.............................. CYCLE  217 ..............................
........................................................................

 iter      E             dE          RMSdq      gap      omega  full diag
   1   -290.8255763 -0.290826E+03  0.681E-03    0.93       0.0  T
   2   -290.8255716  0.471759E-05  0.499E-03    0.93       1.4  T
   3   -290.8255737 -0.205863E-05  0.464E-03    0.93       1.5  T
   4   -290.8255821 -0.844921E-05  0.137E-03    0.93       5.2  T
   5   -290.8255824 -0.229280E-06  0.651E-04    0.93      10.9  T
   6   -290.8255826 -0.267018E-06  0.246E-04    0.93      28.8  T
   7   -290.8255826 -0.201064E-07  0.153E-04    0.93      46.4  T
   8   -290.8255827 -0.180898E-07  0.380E-05    0.93     186.6  T
     SCC iter.                  ...        0 min,  0.292 sec
     gradient                   ...        0 min,  0.040 sec
 * total energy  :  -287.4232382 Eh     change       -0.2455561E-03 Eh
   gradient norm :     0.0074496 Eh/α   predicted    -0.2865929E-03 (  16.71%)
   displ. norm   :     0.6283950 α      lambda       -0.3890090E-03
   maximum displ.:     0.2945750 α      in ANC's #1, #4, #10, ...

........................................................................
.............................. CYCLE  218 ..............................
........................................................................

 iter      E             dE          RMSdq      gap      omega  full diag
   1   -290.8259157 -0.290826E+03  0.586E-03    0.93       0.0  T
   2   -290.8259124  0.331735E-05  0.397E-03    0.93       1.8  T
   3   -290.8259081  0.426064E-05  0.455E-03    0.93       1.6  T
   4   -290.8259203 -0.121860E-04  0.997E-04    0.93       7.1  T
   5   -290.8259204 -0.119961E-06  0.371E-04    0.93      19.1  T
   6   -290.8259204 -0.175945E-07  0.137E-04    0.93      51.6  T
   7   -290.8259204 -0.982658E-08  0.540E-05    0.93     131.2  T
     SCC iter.                  ...        0 min,  0.267 sec
     gradient                   ...        0 min,  0.038 sec
 * total energy  :  -287.4234932 Eh     change       -0.2550028E-03 Eh
   gradient norm :     0.0074631 Eh/α   predicted    -0.2713148E-03 (   6.40%)
   displ. norm   :     0.6447331 α      lambda       -0.3614916E-03
   maximum displ.:     0.3012817 α      in ANC's #1, #4, #2, ...

........................................................................
.............................. CYCLE  219 ..............................
........................................................................

 iter      E             dE          RMSdq      gap      omega  full diag
   1   -290.8236674 -0.290824E+03  0.581E-03    0.94       0.0  T
   2   -290.8236646  0.280512E-05  0.389E-03    0.94       1.8  T
   3   -290.8236631  0.144560E-05  0.469E-03    0.94       1.5  T
   4   -290.8236741 -0.110300E-04  0.130E-03    0.94       5.5  T
   5   -290.8236744 -0.305204E-06  0.501E-04    0.94      14.2  T
   6   -290.8236745 -0.455271E-07  0.231E-04    0.94      30.7  T
   7   -290.8236745 -0.138647E-07  0.178E-04    0.94      39.9  T
   8   -290.8236745 -0.280739E-07  0.391E-05    0.94     181.5  T
     SCC iter.                  ...        0 min,  0.288 sec
     gradient                   ...        0 min,  0.041 sec
 * total energy  :  -287.4237441 Eh     change       -0.2509459E-03 Eh
   gradient norm :     0.0080569 Eh/α   predicted    -0.2558810E-03 (   1.97%)
   displ. norm   :     0.5011168 α      lambda       -0.4261068E-03
   maximum displ.:     0.2250370 α      in ANC's #1, #10, #4, ...
 * RMSD in coord.:     1.4169804 α      energy gain  -0.1311326E-01 Eh

generating ANC from exact Hessian ...
Using Lindh-Hessian (1995)
 Shifting diagonal of input Hessian by   1.059147503763869E-002
 Lowest  eigenvalues of input Hessian
    0.010000    0.010534    0.000000    0.000000    0.010568    0.010575
    0.000000    0.000000    0.000000    0.000000    0.010630    0.010645
    0.010726    0.010802    0.010831    0.010848    0.010915    0.010928
 Highest eigenvalues
    2.028232    2.088474    2.165964    2.182495    2.329030    2.360460
 

........................................................................
.............................. CYCLE  220 ..............................
........................................................................

 iter      E             dE          RMSdq      gap      omega  full diag
   1   -290.8368616 -0.290837E+03  0.954E-03    0.95       0.0  T
   2   -290.8368583  0.323700E-05  0.528E-03    0.94       1.3  T
   3   -290.8368378  0.205601E-04  0.803E-03    0.95       1.0  T
   4   -290.8368679 -0.301328E-04  0.131E-03    0.95       5.4  T
   5   -290.8368681 -0.195302E-06  0.580E-04    0.95      12.2  T
   6   -290.8368680  0.713239E-07  0.492E-04    0.95      14.4  T
   7   -290.8368682 -0.208492E-06  0.125E-04    0.95      56.6  T
   8   -290.8368683 -0.944999E-08  0.472E-05    0.95     150.2  T
     SCC iter.                  ...        0 min,  0.261 sec
     gradient                   ...        0 min,  0.038 sec
 * total energy  :  -287.4238391 Eh     change       -0.9496797E-04 Eh
   gradient norm :     0.0139536 Eh/α   predicted     0.0000000E+00 (-100.00%)
   displ. norm   :     0.0931171 α      lambda       -0.4650443E-03
   maximum displ.:     0.0220322 α      in ANC's #17, #4, #8, ...

........................................................................
.............................. CYCLE  221 ..............................
........................................................................

 iter      E             dE          RMSdq      gap      omega  full diag
   1   -290.8302410 -0.290830E+03  0.603E-03    0.93       0.0  T
   2   -290.8302388  0.224252E-05  0.439E-03    0.93       1.6  T
   3   -290.8302398 -0.996764E-06  0.363E-03    0.93       2.0  T
   4   -290.8302433 -0.352054E-05  0.159E-03    0.93       4.5  T
   5   -290.8302446 -0.134350E-05  0.509E-04    0.93      13.9  T
   6   -290.8302448 -0.185646E-06  0.167E-04    0.93      42.4  T
   7   -290.8302448 -0.326378E-08  0.135E-04    0.93      52.7  T
     SCC iter.                  ...        0 min,  0.243 sec
     gradient                   ...        0 min,  0.043 sec
 * total energy  :  -287.4241007 Eh     change       -0.2616094E-03 Eh
   gradient norm :     0.0048438 Eh/α   predicted    -0.2345390E-03 ( -10.35%)
   displ. norm   :     0.1061960 α      lambda       -0.1857071E-03
   maximum displ.:     0.0323106 α      in ANC's #4, #8, #6, ...

........................................................................
.............................. CYCLE  222 ..............................
........................................................................

 iter      E             dE          RMSdq      gap      omega  full diag
   1   -290.8270865 -0.290827E+03  0.509E-03    0.94       0.0  T
   2   -290.8270840  0.247983E-05  0.452E-03    0.94       1.6  T
   3   -290.8270886 -0.463496E-05  0.221E-03    0.94       3.2  T
   4   -290.8270892 -0.545373E-06  0.141E-03    0.94       5.0  T
   5   -290.8270906 -0.145397E-05  0.280E-04    0.94      25.3  T
   6   -290.8270907 -0.310467E-07  0.117E-04    0.94      60.6  T
   7   -290.8270907  0.882494E-09  0.985E-05    0.94      72.0  T
     SCC iter.                  ...        0 min,  0.255 sec
     gradient                   ...        0 min,  0.038 sec
 * total energy  :  -287.4241981 Eh     change       -0.9739538E-04 Eh
   gradient norm :     0.0039840 Eh/α   predicted    -0.9402825E-04 (  -3.46%)
   displ. norm   :     0.1250315 α      lambda       -0.1076877E-03
   maximum displ.:     0.0405633 α      in ANC's #4, #8, #6, ...

........................................................................
.............................. CYCLE  223 ..............................
........................................................................

 iter      E             dE          RMSdq      gap      omega  full diag
   1   -290.8263464 -0.290826E+03  0.125E-03    0.94       0.0  T
   2   -290.8263463  0.829063E-07  0.953E-04    0.94       7.4  T
   3   -290.8263466 -0.318837E-06  0.765E-04    0.94       9.3  T
   4   -290.8263469 -0.285239E-06  0.309E-04    0.94      23.0  T
   5   -290.8263469 -0.163977E-07  0.175E-04    0.94      40.5  T
   6   -290.8263469 -0.289180E-08  0.442E-05    0.94     160.5  T
     SCC iter.                  ...        0 min,  0.227 sec
     gradient                   ...        0 min,  0.040 sec
 * total energy  :  -287.4242910 Eh     change       -0.9286290E-04 Eh
   gradient norm :     0.0046531 Eh/α   predicted    -0.5468870E-04 ( -41.11%)
   displ. norm   :     0.4932947 α      lambda       -0.3726079E-03
   maximum displ.:     0.1634808 α      in ANC's #4, #8, #6, ...

........................................................................
.............................. CYCLE  224 ..............................
........................................................................

 iter      E             dE          RMSdq      gap      omega  full diag
   1   -290.8256170 -0.290826E+03  0.447E-03    0.93       0.0  T
   2   -290.8256157  0.123711E-05  0.345E-03    0.94       2.1  T
   3   -290.8256207 -0.500390E-05  0.282E-03    0.94       2.5  T
   4   -290.8256248 -0.407815E-05  0.993E-04    0.94       7.1  T
   5   -290.8256249 -0.949416E-07  0.626E-04    0.94      11.3  T
   6   -290.8256249 -0.206688E-07  0.207E-04    0.94      34.3  T
   7   -290.8256249  0.247326E-08  0.190E-04    0.94      37.3  T
   8   -290.8256250 -0.275693E-07  0.345E-05    0.94     205.3  T
     SCC iter.                  ...        0 min,  0.273 sec
     gradient                   ...        0 min,  0.038 sec
 * total energy  :  -287.4245634 Eh     change       -0.2723947E-03 Eh
   gradient norm :     0.0058480 Eh/α   predicted    -0.2316407E-03 ( -14.96%)
   displ. norm   :     0.4741888 α      lambda       -0.2716254E-03
   maximum displ.:     0.1667993 α      in ANC's #4, #6, #8, ...

........................................................................
.............................. CYCLE  225 ..............................
........................................................................

 iter      E             dE          RMSdq      gap      omega  full diag
   1   -290.8261042 -0.290826E+03  0.400E-03    0.93       0.0  T
   2   -290.8261034  0.801710E-06  0.293E-03    0.94       2.4  T
   3   -290.8261065 -0.305336E-05  0.275E-03    0.94       2.6  T
   4   -290.8261105 -0.406644E-05  0.832E-04    0.94       8.5  T
   5   -290.8261106 -0.525584E-07  0.546E-04    0.94      13.0  T
   6   -290.8261106 -0.737964E-08  0.233E-04    0.94      30.4  T
   7   -290.8261106 -0.941333E-08  0.166E-04    0.94      42.7  T
   8   -290.8261106 -0.216414E-07  0.358E-05    0.94     198.2  T
     SCC iter.                  ...        0 min,  0.304 sec
     gradient                   ...        0 min,  0.050 sec
 * total energy  :  -287.4247772 Eh     change       -0.2138740E-03 Eh
   gradient norm :     0.0063251 Eh/α   predicted    -0.1663521E-03 ( -22.22%)
   displ. norm   :     0.5215195 α      lambda       -0.3050618E-03
   maximum displ.:     0.1922108 α      in ANC's #4, #6, #8, ...

........................................................................
.............................. CYCLE  226 ..............................
........................................................................

 iter      E             dE          RMSdq      gap      omega  full diag
   1   -290.8276106 -0.290828E+03  0.483E-03    0.94       0.0  T
   2   -290.8276029  0.772766E-05  0.449E-03    0.94       1.6  T
   3   -290.8276148 -0.119250E-04  0.342E-03    0.94       2.1  T
   4   -290.8276192 -0.439812E-05  0.116E-03    0.94       6.1  T
   5   -290.8276197 -0.535625E-06  0.626E-04    0.94      11.3  T
   6   -290.8276197 -0.365617E-09  0.363E-04    0.94      19.5  T
   7   -290.8276198 -0.648866E-07  0.180E-04    0.94      39.3  T
   8   -290.8276198 -0.239015E-07  0.458E-05    0.94     154.8  T
     SCC iter.                  ...        0 min,  0.254 sec
     gradient                   ...        0 min,  0.040 sec
 * total energy  :  -287.4250324 Eh     change       -0.2551699E-03 Eh
   gradient norm :     0.0053334 Eh/α   predicted    -0.1940196E-03 ( -23.96%)
   displ. norm   :     0.5704745 α      lambda       -0.3604880E-03
   maximum displ.:     0.2215942 α      in ANC's #4, #6, #8, ...

........................................................................
.............................. CYCLE  227 ..............................
........................................................................

 iter      E             dE          RMSdq      gap      omega  full diag
   1   -290.8304166 -0.290830E+03  0.562E-03    0.94       0.0  T
   2   -290.8304106  0.597341E-05  0.474E-03    0.94       1.5  T
   3   -290.8304190 -0.842855E-05  0.384E-03    0.94       1.8  T
   4   -290.8304256 -0.654665E-05  0.105E-03    0.94       6.7  T
   5   -290.8304257 -0.148309E-06  0.557E-04    0.94      12.7  T
   6   -290.8304257  0.150128E-07  0.413E-04    0.94      17.2  T
   7   -290.8304258 -0.110841E-06  0.142E-04    0.94      49.8  T
   8   -290.8304258 -0.148033E-07  0.419E-05    0.94     169.2  T
     SCC iter.                  ...        0 min,  0.303 sec
     gradient                   ...        0 min,  0.037 sec
 * total energy  :  -287.4253186 Eh     change       -0.2861714E-03 Eh
   gradient norm :     0.0041705 Eh/α   predicted    -0.2389034E-03 ( -16.52%)
   displ. norm   :     0.6288349 α      lambda       -0.3164993E-03
   maximum displ.:     0.2518487 α      in ANC's #4, #6, #3, ...

........................................................................
.............................. CYCLE  228 ..............................
........................................................................

 iter      E             dE          RMSdq      gap      omega  full diag
   1   -290.8290218 -0.290829E+03  0.686E-03    0.94       0.0  T
   2   -290.8290058  0.159439E-04  0.710E-03    0.94       1.0  T
   3   -290.8290313 -0.254378E-04  0.394E-03    0.94       1.8  T
   4   -290.8290375 -0.621068E-05  0.132E-03    0.94       5.4  T
   5   -290.8290374  0.185547E-07  0.814E-04    0.94       8.7  T
   6   -290.8290375 -0.679106E-07  0.576E-04    0.94      12.3  T
   7   -290.8290378 -0.248117E-06  0.133E-04    0.94      53.2  T
   8   -290.8290378 -0.605098E-08  0.367E-05    0.94     193.4  T
     SCC iter.                  ...        0 min,  0.304 sec
     gradient                   ...        0 min,  0.034 sec
 * total energy  :  -287.4255614 Eh     change       -0.2428022E-03 Eh
   gradient norm :     0.0044474 Eh/α   predicted    -0.2208382E-03 (  -9.05%)
   displ. norm   :     0.5346337 α      lambda       -0.2556748E-03
   maximum displ.:     0.2265461 α      in ANC's #4, #6, #3, ...

........................................................................
.............................. CYCLE  229 ..............................
........................................................................

 iter      E             dE          RMSdq      gap      omega  full diag
   1   -290.8296959 -0.290830E+03  0.517E-03    0.95       0.0  T
   2   -290.8296883  0.753382E-05  0.523E-03    0.95       1.4  T
   3   -290.8297016 -0.132622E-04  0.286E-03    0.95       2.5  T
   4   -290.8297050 -0.342687E-05  0.890E-04    0.95       8.0  T
   5   -290.8297050  0.442963E-07  0.583E-04    0.95      12.2  T
   6   -290.8297050 -0.288564E-07  0.410E-04    0.95      17.3  T
   7   -290.8297051 -0.133006E-06  0.947E-05    0.95      74.9  T
   8   -290.8297051 -0.187799E-08  0.282E-05    0.95     251.3  T
     SCC iter.                  ...        0 min,  0.283 sec
     gradient                   ...        0 min,  0.046 sec
 * total energy  :  -287.4257544 Eh     change       -0.1929846E-03 Eh
   gradient norm :     0.0043556 Eh/α   predicted    -0.1643839E-03 ( -14.82%)
   displ. norm   :     0.4644306 α      lambda       -0.2027424E-03
   maximum displ.:     0.2081556 α      in ANC's #4, #6, #3, ...

........................................................................
.............................. CYCLE  230 ..............................
........................................................................

 iter      E             dE          RMSdq      gap      omega  full diag
   1   -290.8301985 -0.290830E+03  0.381E-03    0.95       0.0  T
   2   -290.8301947  0.385531E-05  0.375E-03    0.94       1.9  T
   3   -290.8302013 -0.664634E-05  0.213E-03    0.95       3.3  T
   4   -290.8302037 -0.234798E-05  0.675E-04    0.94      10.5  T
   5   -290.8302037 -0.365265E-07  0.312E-04    0.94      22.7  T
   6   -290.8302037 -0.284266E-07  0.115E-04    0.94      61.7  T
   7   -290.8302037  0.124027E-08  0.901E-05    0.94      78.7  T
     SCC iter.                  ...        0 min,  0.253 sec
     gradient                   ...        0 min,  0.049 sec
 * total energy  :  -287.4259102 Eh     change       -0.1558603E-03 Eh
   gradient norm :     0.0041052 Eh/α   predicted    -0.1232372E-03 ( -20.93%)
   displ. norm   :     0.4413709 α      lambda       -0.1926419E-03
   maximum displ.:     0.2084115 α      in ANC's #4, #6, #3, ...

........................................................................
.............................. CYCLE  231 ..............................
........................................................................

 iter      E             dE          RMSdq      gap      omega  full diag
   1   -290.8285313 -0.290829E+03  0.336E-03    0.94       0.0  T
   2   -290.8285295  0.177465E-05  0.269E-03    0.94       2.6  T
   3   -290.8285328 -0.327692E-05  0.217E-03    0.94       3.3  T
   4   -290.8285357 -0.286367E-05  0.628E-04    0.94      11.3  T
   5   -290.8285357 -0.354931E-07  0.320E-04    0.94      22.2  T
   6   -290.8285357 -0.227982E-08  0.138E-04    0.94      51.2  T
   7   -290.8285357 -0.426786E-08  0.105E-04    0.94      67.5  T
     SCC iter.                  ...        0 min,  0.233 sec
     gradient                   ...        0 min,  0.036 sec
 * total energy  :  -287.4260560 Eh     change       -0.1457717E-03 Eh
   gradient norm :     0.0034229 Eh/α   predicted    -0.1150864E-03 ( -21.05%)
   displ. norm   :     0.3750367 α      lambda       -0.1863614E-03
   maximum displ.:     0.1835652 α      in ANC's #4, #6, #3, ...

........................................................................
.............................. CYCLE  232 ..............................
........................................................................

 iter      E             dE          RMSdq      gap      omega  full diag
   1   -290.8312636 -0.290831E+03  0.366E-03    0.94       0.0  T
   2   -290.8312651 -0.150165E-05  0.194E-03    0.94       3.7  T
   3   -290.8312654 -0.314140E-06  0.125E-03    0.94       5.7  T
   4   -290.8312652  0.201132E-06  0.856E-04    0.94       8.3  T
   5   -290.8312654 -0.249917E-06  0.464E-04    0.94      15.3  T
   6   -290.8312656 -0.184995E-06  0.102E-04    0.94      69.4  T
   7   -290.8312656 -0.488296E-08  0.416E-05    0.94     170.6  T
     SCC iter.                  ...        0 min,  0.259 sec
     gradient                   ...        0 min,  0.044 sec
 * total energy  :  -287.4261681 Eh     change       -0.1121374E-03 Eh
   gradient norm :     0.0056364 Eh/α   predicted    -0.1062896E-03 (  -5.21%)
   displ. norm   :     0.4033668 α      lambda       -0.1673040E-03
   maximum displ.:     0.2013940 α      in ANC's #4, #6, #3, ...

........................................................................
.............................. CYCLE  233 ..............................
........................................................................

 iter      E             dE          RMSdq      gap      omega  full diag
   1   -290.8274778 -0.290827E+03  0.547E-03    0.93       0.0  T
   2   -290.8274810 -0.318986E-05  0.383E-03    0.94       1.9  T
   3   -290.8274844 -0.333802E-05  0.156E-03    0.93       4.5  T
   4   -290.8274837  0.663641E-06  0.125E-03    0.93       5.7  T
   5   -290.8274843 -0.578372E-06  0.811E-04    0.93       8.7  T
   6   -290.8274848 -0.504508E-06  0.953E-05    0.93      74.3  T
   7   -290.8274848  0.386024E-08  0.104E-04    0.93      67.9  T
     SCC iter.                  ...        0 min,  0.263 sec
     gradient                   ...        0 min,  0.052 sec
 * total energy  :  -287.4262703 Eh     change       -0.1021272E-03 Eh
   gradient norm :     0.0041718 Eh/α   predicted    -0.9726587E-04 (  -4.76%)
   displ. norm   :     0.2301328 α      lambda       -0.1017033E-03
   maximum displ.:     0.1200986 α      in ANC's #4, #6, #3, ...

........................................................................
.............................. CYCLE  234 ..............................
........................................................................

 iter      E             dE          RMSdq      gap      omega  full diag
   1   -290.8278378 -0.290828E+03  0.177E-03    0.93       0.0  T
   2   -290.8278377  0.924010E-07  0.131E-03    0.93       5.4  T
   3   -290.8278377 -0.463309E-07  0.107E-03    0.93       6.6  T
   4   -290.8278385 -0.758003E-06  0.513E-04    0.93      13.8  T
   5   -290.8278386 -0.635926E-07  0.198E-04    0.93      35.7  T
   6   -290.8278386 -0.160489E-07  0.385E-05    0.93     184.2  T
     SCC iter.                  ...        0 min,  0.222 sec
     gradient                   ...        0 min,  0.041 sec
 * total energy  :  -287.4263552 Eh     change       -0.8496347E-04 Eh
   gradient norm :     0.0033461 Eh/α   predicted    -0.5354742E-04 ( -36.98%)
   displ. norm   :     0.3544050 α      lambda       -0.1654247E-03
   maximum displ.:     0.1830380 α      in ANC's #4, #3, #6, ...

........................................................................
.............................. CYCLE  235 ..............................
........................................................................

 iter      E             dE          RMSdq      gap      omega  full diag
   1   -290.8293245 -0.290829E+03  0.335E-03    0.93       0.0  T
   2   -290.8293261 -0.152893E-05  0.159E-03    0.93       4.4  T
   3   -290.8293260  0.694341E-07  0.115E-03    0.93       6.1  T
   4   -290.8293254  0.619017E-06  0.104E-03    0.93       6.8  T
   5   -290.8293264 -0.100050E-05  0.403E-04    0.93      17.6  T
   6   -290.8293264 -0.560107E-07  0.957E-05    0.93      74.1  T
   7   -290.8293264 -0.287667E-08  0.495E-05    0.93     143.1  T
     SCC iter.                  ...        0 min,  0.233 sec
     gradient                   ...        0 min,  0.037 sec
 * total energy  :  -287.4264723 Eh     change       -0.1170380E-03 Eh
   gradient norm :     0.0026561 Eh/α   predicted    -0.9310239E-04 ( -20.45%)
   displ. norm   :     0.3321812 α      lambda       -0.8814929E-04
   maximum displ.:     0.1782124 α      in ANC's #4, #3, #6, ...

........................................................................
.............................. CYCLE  236 ..............................
........................................................................

 iter      E             dE          RMSdq      gap      omega  full diag
   1   -290.8292469 -0.290829E+03  0.283E-03    0.93       0.0  T
   2   -290.8292472 -0.303239E-06  0.158E-03    0.93       4.5  T
   3   -290.8292467  0.541381E-06  0.196E-03    0.93       3.6  T
   4   -290.8292482 -0.154988E-05  0.510E-04    0.93      13.9  T
   5   -290.8292483 -0.151058E-07  0.284E-04    0.93      25.0  T
   6   -290.8292483 -0.298129E-07  0.948E-05    0.93      74.8  T
   7   -290.8292483 -0.282336E-08  0.640E-05    0.93     110.7  T
     SCC iter.                  ...        0 min,  0.253 sec
     gradient                   ...        0 min,  0.038 sec
 * total energy  :  -287.4265396 Eh     change       -0.6731043E-04 Eh
   gradient norm :     0.0030905 Eh/α   predicted    -0.4894288E-04 ( -27.29%)
   displ. norm   :     0.2972284 α      lambda       -0.7485408E-04
   maximum displ.:     0.1623349 α      in ANC's #4, #3, #6, ...

........................................................................
.............................. CYCLE  237 ..............................
........................................................................

 iter      E             dE          RMSdq      gap      omega  full diag
   1   -290.8293591 -0.290829E+03  0.238E-03    0.93       0.0  T
   2   -290.8293588  0.318825E-06  0.141E-03    0.93       5.0  T
   3   -290.8293584  0.382526E-06  0.176E-03    0.93       4.0  T
   4   -290.8293599 -0.154372E-05  0.456E-04    0.93      15.6  T
   5   -290.8293599  0.135537E-07  0.250E-04    0.93      28.4  T
   6   -290.8293599 -0.335843E-07  0.645E-05    0.93     109.8  T
   7   -290.8293599  0.731006E-10  0.628E-05    0.93     112.9  T
     SCC iter.                  ...        0 min,  0.251 sec
     gradient                   ...        0 min,  0.039 sec
 * total energy  :  -287.4266011 Eh     change       -0.6153615E-04 Eh
   gradient norm :     0.0025791 Eh/α   predicted    -0.4073747E-04 ( -33.80%)
   displ. norm   :     0.3308667 α      lambda       -0.8903262E-04
   maximum displ.:     0.1821375 α      in ANC's #4, #3, #6, ...

........................................................................
.............................. CYCLE  238 ..............................
........................................................................

 iter      E             dE          RMSdq      gap      omega  full diag
   1   -290.8296506 -0.290830E+03  0.274E-03    0.93       0.0  T
   2   -290.8296495  0.101946E-05  0.195E-03    0.93       3.6  T
   3   -290.8296502 -0.705038E-06  0.179E-03    0.93       4.0  T
   4   -290.8296518 -0.157773E-05  0.536E-04    0.93      13.2  T
   5   -290.8296518  0.331509E-07  0.335E-04    0.93      21.2  T
   6   -290.8296519 -0.684717E-07  0.847E-05    0.93      83.7  T
   7   -290.8296519 -0.155580E-08  0.760E-05    0.93      93.2  T
     SCC iter.                  ...        0 min,  0.247 sec
     gradient                   ...        0 min,  0.039 sec
 * total energy  :  -287.4266716 Eh     change       -0.7044170E-04 Eh
   gradient norm :     0.0020852 Eh/α   predicted    -0.4939073E-04 ( -29.88%)
   displ. norm   :     0.3431622 α      lambda       -0.8126390E-04
   maximum displ.:     0.1908509 α      in ANC's #4, #3, #6, ...

........................................................................
.............................. CYCLE  239 ..............................
........................................................................

 iter      E             dE          RMSdq      gap      omega  full diag
   1   -290.8294389 -0.290829E+03  0.222E-03    0.93       0.0  T
   2   -290.8294381  0.760631E-06  0.165E-03    0.93       4.3  T
   3   -290.8294388 -0.666113E-06  0.140E-03    0.93       5.1  T
   4   -290.8294400 -0.116396E-05  0.409E-04    0.93      17.3  T
   5   -290.8294400  0.228510E-07  0.259E-04    0.93      27.4  T
   6   -290.8294400 -0.312912E-07  0.124E-04    0.93      57.0  T
   7   -290.8294400 -0.107491E-07  0.676E-05    0.93     104.9  T
     SCC iter.                  ...        0 min,  0.257 sec
     gradient                   ...        0 min,  0.040 sec
 * total energy  :  -287.4267345 Eh     change       -0.6293349E-04 Eh
   gradient norm :     0.0028830 Eh/α   predicted    -0.4542008E-04 ( -27.83%)
   displ. norm   :     0.3188788 α      lambda       -0.7172404E-04
   maximum displ.:     0.1771924 α      in ANC's #4, #3, #6, ...

........................................................................
.............................. CYCLE  240 ..............................
........................................................................

 iter      E             dE          RMSdq      gap      omega  full diag
   1   -290.8295873 -0.290830E+03  0.172E-03    0.93       0.0  T
   2   -290.8295868  0.456159E-06  0.140E-03    0.93       5.1  T
   3   -290.8295875 -0.700793E-06  0.922E-04    0.93       7.7  T
   4   -290.8295881 -0.572589E-06  0.300E-04    0.93      23.6  T
   5   -290.8295881 -0.249506E-07  0.168E-04    0.93      42.2  T
   6   -290.8295881 -0.844148E-08  0.104E-04    0.93      68.4  T
     SCC iter.                  ...        0 min,  0.231 sec
     gradient                   ...        0 min,  0.057 sec
 * total energy  :  -287.4267907 Eh     change       -0.5616356E-04 Eh
   gradient norm :     0.0028110 Eh/α   predicted    -0.3950996E-04 ( -29.65%)
   displ. norm   :     0.3386708 α      lambda       -0.7559660E-04
   maximum displ.:     0.1884446 α      in ANC's #4, #3, #6, ...

........................................................................
.............................. CYCLE  241 ..............................
........................................................................

 iter      E             dE          RMSdq      gap      omega  full diag
   1   -290.8293562 -0.290829E+03  0.165E-03    0.94       0.0  T
   2   -290.8293561  0.107180E-06  0.117E-03    0.93       6.1  T
   3   -290.8293564 -0.277224E-06  0.102E-03    0.93       7.0  T
   4   -290.8293570 -0.678196E-06  0.314E-04    0.93      22.6  T
   5   -290.8293570 -0.138083E-07  0.170E-04    0.93      41.6  T
   6   -290.8293571 -0.319272E-08  0.554E-05    0.93     128.1  T
     SCC iter.                  ...        0 min,  0.215 sec
     gradient                   ...        0 min,  0.039 sec
 * total energy  :  -287.4268497 Eh     change       -0.5900882E-04 Eh
   gradient norm :     0.0028827 Eh/α   predicted    -0.4213547E-04 ( -28.59%)
   displ. norm   :     0.3376255 α      lambda       -0.7804924E-04
   maximum displ.:     0.1854573 α      in ANC's #4, #3, #6, ...

........................................................................
.............................. CYCLE  242 ..............................
........................................................................

 iter      E             dE          RMSdq      gap      omega  full diag
   1   -290.8296436 -0.290830E+03  0.220E-03    0.94       0.0  T
   2   -290.8296431  0.490892E-06  0.156E-03    0.94       4.5  T
   3   -290.8296435 -0.446137E-06  0.164E-03    0.93       4.3  T
   4   -290.8296448 -0.132589E-05  0.472E-04    0.94      15.0  T
   5   -290.8296449 -0.503035E-07  0.247E-04    0.94      28.7  T
   6   -290.8296449 -0.320233E-08  0.935E-05    0.94      75.8  T
   7   -290.8296449 -0.216801E-08  0.763E-05    0.94      92.9  T
     SCC iter.                  ...        0 min,  0.260 sec
     gradient                   ...        0 min,  0.041 sec
 * total energy  :  -287.4269079 Eh     change       -0.5819050E-04 Eh
   gradient norm :     0.0019409 Eh/α   predicted    -0.4347604E-04 ( -25.29%)
   displ. norm   :     0.4649158 α      lambda       -0.6289190E-04
   maximum displ.:     0.2585656 α      in ANC's #4, #3, #6, ...

........................................................................
.............................. CYCLE  243 ..............................
........................................................................

 iter      E             dE          RMSdq      gap      omega  full diag
   1   -290.8290835 -0.290829E+03  0.309E-03    0.94       0.0  T
   2   -290.8290817  0.183845E-05  0.228E-03    0.94       3.1  T
   3   -290.8290835 -0.182744E-05  0.254E-03    0.93       2.8  T
   4   -290.8290860 -0.252563E-05  0.951E-04    0.93       7.5  T
   5   -290.8290864 -0.387772E-06  0.409E-04    0.93      17.3  T
   6   -290.8290864  0.122600E-08  0.183E-04    0.93      38.8  T
   7   -290.8290864 -0.210023E-07  0.984E-05    0.93      72.1  T
     SCC iter.                  ...        0 min,  0.271 sec
     gradient                   ...        0 min,  0.038 sec
 * total energy  :  -287.4269663 Eh     change       -0.5847881E-04 Eh
   gradient norm :     0.0025168 Eh/α   predicted    -0.3447211E-04 ( -41.05%)
   displ. norm   :     0.1545768 α      lambda       -0.3962886E-04
   maximum displ.:     0.0833526 α      in ANC's #4, #3, #9, ...

........................................................................
.............................. CYCLE  244 ..............................
........................................................................

 iter      E             dE          RMSdq      gap      omega  full diag
   1   -290.8298498 -0.290830E+03  0.139E-03    0.93       0.0  T
   2   -290.8298494  0.358934E-06  0.109E-03    0.93       6.5  T
   3   -290.8298498 -0.439267E-06  0.103E-03    0.93       6.9  T
   4   -290.8298503 -0.469699E-06  0.312E-04    0.93      22.7  T
   5   -290.8298503 -0.306739E-07  0.144E-04    0.93      49.3  T
   6   -290.8298503  0.551324E-09  0.776E-05    0.93      91.3  T
     SCC iter.                  ...        0 min,  0.216 sec
     gradient                   ...        0 min,  0.042 sec
 * total energy  :  -287.4269983 Eh     change       -0.3201108E-04 Eh
   gradient norm :     0.0023774 Eh/α   predicted    -0.2029007E-04 ( -36.62%)
   displ. norm   :     0.2865177 α      lambda       -0.7245370E-04
   maximum displ.:     0.1529441 α      in ANC's #4, #3, #9, ...

   *** GEOMETRY OPTIMIZATION CONVERGED AFTER 244 ITERATIONS ***

------------------------------------------------------------------------
 total energy gain   :        -1.4372500 Eh     -901.8880 kcal/mol
 total RMSD          :         3.7352197 a0        1.9766 Å
 total power (kW/mol):       -15.4651615 (step)  -44.3027 (real)
------------------------------------------------------------------------

 ANCopt (total)                0 d,  0 h,  1 min, 25.176 sec
 optimizer setup                ...        0 min,  0.002 sec (  0.002%)
 model hessian                  ...        0 min,  1.347 sec (  1.581%)
 ANC generation                 ...        0 min,  0.298 sec (  0.350%)
 coordinate transformation      ...        0 min,  0.093 sec (  0.109%)
 single point calculation       ...        1 min, 23.082 sec ( 97.542%)
 optimization log               ...        0 min,  0.106 sec (  0.125%)
 hessian update                 ...        0 min,  0.115 sec (  0.134%)
 rational function              ...        0 min,  0.112 sec (  0.131%)

================
 final structure:
================
199
 xtb: 6.7.1 (edcfbbe)
Ru           6.57410374581895        0.79826821725778        5.03268732876968
P            5.21391063006872        2.58083231786190        5.65688824516952
P            8.37431478877749        2.17075278950033        4.56347008142588
O            5.79749720692219        6.79763656290764        1.50223038709928
O            7.51246968566139        6.52859773763845        3.00201836287496
O            7.18296333035512        7.13285884119429        5.84557234796112
O            8.90861253669153        7.38540056769073        7.33573335393733
C            5.48360756994890        3.56760505632662        7.18410420977910
C            6.23764085869335        3.13939107924080        8.26675934882405
H            6.70544066619343        2.16970334386504        8.21935472797272
C            6.42422529301433        3.92662573783570        9.40383698669218
C            5.83979688866472        5.20441541116910        9.41094098804430
C            4.90052581747296        5.58129449803672        8.42436393970421
C            4.78055762129639        4.77129324638826        7.30521233638852
H            4.13015660685255        5.06151131902050        6.49029452082809
C            3.43840371063340        2.14480988684492        5.84737535841835
C            2.75903204075754        2.37716670262031        7.04424555665262
H            3.30850463058164        2.80547591422974        7.86900755226559
C            1.41408603675387        2.06946554420283        7.20062388112868
C            0.73107005552869        1.48951862660341        6.10926956759969
C            1.35373327305687        1.34037167225894        4.85827838067454
C            2.71937959086721        1.60981391260052        4.78341870478925
H            3.23944129760008        1.40736722030841        3.86231055564152
C            5.29650260203526        3.93298615551309        4.41546845166589
C            4.25792080480097        4.14108048997382        3.51178562181311
H            3.36108613136160        3.54421395321527        3.59491820082810
C            4.30920093965840        5.08703248979610        2.48682126302785
H            3.48316210785650        5.21643218098257        1.80115930591732
C            5.46209760934916        5.82654197519308        2.39695328335761
C            7.10494012204554        7.23412143123605        1.84014107127666
H            7.09408999935026        8.31618247117815        2.04717184377231
H            7.79798999614727        7.01224519126971        1.01086919401540
C            6.50262462960388        5.66072384967627        3.31552133215349
C            6.47226570252075        4.72994028928305        4.33546455347102
C            7.58251019291379        4.74556345865013        5.32408705314315
C            7.84064209218767        5.93687388435030        5.97533587100651
C            7.93910124792100        8.08831115141976        6.57003755392486
H            8.44724691525698        8.77383312224660        5.86724310160793
H            7.28168651754541        8.65734887160566        7.24064340192590
C            8.87869575743925        6.09205334638099        6.89879567530341
C            9.69318241174713        5.04185656186162        7.23968739485186
H           10.49245779582717        5.13999682478751        7.96135886412670
C            9.46288665644160        3.83603408230321        6.57319863721609
H           10.11201853025836        3.00695358924357        6.80772100071265
C            8.46700278650637        3.67388950389415        5.61578268168278
C            8.60272605481902        3.06152189135810        2.94392506260710
C            7.79610647951317        2.90487392587004        1.82103236932486
H            6.92499406765813        2.27102112550177        1.90695680140776
C            8.10396922481538        3.52598108635863        0.61173267145738
C            9.26821275372467        4.32035968116515        0.55226024124150
C            9.99345393738997        4.64662448096483        1.71360842259398
C            9.66632194030238        3.95918264741470        2.87762248360300
H           10.26072459097002        4.11420701540579        3.76993237455252
C            9.96533736905567        1.25091925560548        4.56984307706244
C           10.48170855653315        0.88130782324916        3.32706973025860
H            9.92365751885395        1.14601050999044        2.43835683153942
C           11.67645955169318        0.18267025759760        3.18874172518681
C           12.33617764953616       -0.22926757767094        4.36282897172440
C           11.88662551790966        0.18231927125376        5.63035604543777
C           10.68742674604893        0.88763496902685        5.70175814073537
H           10.30079734190446        1.13641337472012        6.67538043386522
O            7.91244165586385        1.13340354716257        6.59044991333225
O            5.61964168281415       -0.03159052521746        3.55097328887212
C            8.13158749348241        0.29796417646852        7.55477355331952
C            4.99692567363279        0.40531903922154        2.52186408673381
C            7.17982275064268       -0.89211985918538        7.59916336767226
H            6.16063353868959       -0.53259625659185        7.74588382657508
H            7.23562698401480       -1.42600031017922        6.64698021544356
H            7.45037987000703       -1.56453985897183        8.40923364866303
C            4.60148699665768       -0.67847123956813        1.52782921987614
H            5.49650924504679       -0.99976697711963        0.99810406659879
H            4.18625654590057       -1.53183558846550        2.06007069666083
H            3.87953095274175       -0.28251728338795        0.81939526628566
O            4.72532224376992        1.58173849315192        2.31542052888797
O            9.01496040149697        0.42444809980346        8.38387246211001
C           12.16662241354060       -0.04941027313552        1.75207150594217
C           12.60596497714701       -0.08035753797647        6.96121011189463
C           13.63092667208716       -0.49888310704773        1.62749984598598
H           13.76485528288271       -1.53605853635997        1.92419881156147
H           13.93992763973049       -0.41539876729236        0.58361164705934
H           14.28352180398425        0.13102405621518        2.22976868449512
C           11.26115877205841       -1.09733015271847        1.08090793562770
H           11.31697887196026       -2.04405433114745        1.61897230969301
H           10.22320069101032       -0.76435030497488        1.07546786688906
H           11.57881102084920       -1.26359272263114        0.05077265347761
C           12.06325036102594        1.28172258117831        0.97608338281280
H           11.03202368678602        1.61086850019513        0.85658709344872
H           12.61695941207633        2.05904737015272        1.50234721784494
H           12.49122648712034        1.16408867489227       -0.01995187393169
C           14.10121698217091       -0.40723050232937        6.81196437101416
H           14.26186799351970       -1.42256361512961        6.45788354688578
H           14.58484431718350        0.28742749659580        6.12644418834997
H           14.58541767279181       -0.32280892027840        7.78649466952386
C           11.89950183867051       -1.23643448186412        7.69034689582886
H           10.86251533237646       -0.97656840195481        7.89849514130110
H           11.91443305819540       -2.14272430855013        7.08465054768987
H           12.40282081927896       -1.44161632486195        8.63570623067238
C           12.51391069772973        1.18176533202322        7.84753025651596
H           11.50567957237744        1.33115452944551        8.23053642882523
H           13.17725034977058        1.07536561171630        8.70624423159974
H           12.81493303450472        2.06559199149179        7.28418854127958
C           11.08217108296119        5.72282580021695        1.82697148346163
C           12.46731846071564        5.05761683752333        1.90351532210462
H           13.23896391436388        5.81503618434071        2.04606952435851
H           12.50610144417002        4.35886935394415        2.73948294208428
H           12.68731553267934        4.51049007652720        0.98733357233115
C           11.05882200809503        6.74769607500705        0.68130220690061
H           10.04027218298453        7.08212028745836        0.48540406892512
H           11.65758477905579        7.61629122311679        0.96044078802400
H           11.47622548632937        6.34718445327424       -0.23868267009122
C           10.86196964986253        6.52315429917927        3.13058491229837
H           11.52940892023243        7.38531329759883        3.14917963150085
H            9.83481831507726        6.87875241767638        3.18863359753029
H           11.07257211914592        5.92590950092501        4.01669608506725
C            7.17812455144474        3.36568959043418       -0.60237011165300
C            7.85835659999451        2.53130980657535       -1.70440203944068
H            7.10927721199007        2.18434335310375       -2.41781325608986
H            8.58713113216590        3.12382690464578       -2.25237077435731
H            8.35401281337037        1.66078241771305       -1.27323634602687
C            6.78766037293997        4.74503110417537       -1.16503773488826
H            6.28192396843127        5.33127445372694       -0.39906897330146
H            7.65248973030168        5.30166275991130       -1.51772712767997
H            6.10308125435350        4.61303628656238       -2.00421288697895
C            5.86810142725382        2.65381008721408       -0.23234518418951
H            6.04728168087107        1.62062283568413        0.06098173107452
H            5.35470103097068        3.16902214722708        0.57810262478200
H            5.20610476629038        2.64563252796818       -1.09965920646752
C            0.65669866662956        0.96887687139690        3.54088288314003
C            1.20242706601016        1.87054352052109        2.41034796296550
H            1.12727598598267        2.91972729273282        2.69759130120519
H            2.23929915949032        1.64691431434341        2.16706123548998
H            0.61373969596389        1.71805692678364        1.50494591478404
C           -0.86491409238472        1.19066519447384        3.56087847673584
H           -1.10421145560910        2.16179924782128        3.99228938178099
H           -1.24435189359595        1.16559794841459        2.53798859163325
H           -1.38965349091690        0.41984516277868        4.11864675014681
C            0.97043196356592       -0.49499556707626        3.18748231795904
H            0.51608880953752       -0.75445290122484        2.23069595936950
H            2.04778894525431       -0.64332778283013        3.11400597844848
H            0.58453161152188       -1.17219870221960        3.94925618826243
C            0.67899279039248        2.49873637754188        8.47731036270214
C            1.63039956100083        3.12657538431449        9.51058375136384
H            2.38393969595832        2.41083828874456        9.84027999555415
H            2.12750265127739        4.00871792755174        9.10917275063004
H            1.05481259551836        3.43921954204805       10.38252985872240
C           -0.35292014706991        3.57026096093953        8.07643068983611
H           -0.86869127161733        3.94246974257768        8.96219118570176
H            0.14886134055607        4.40643102238729        7.58761600378988
H           -1.09193510426292        3.15966164684671        7.39059919716533
C           -0.03399293011614        1.33127042429160        9.18167005773285
H           -0.29557188375153        1.62331231995940       10.19988800414344
H           -0.95554220752887        1.06495534544201        8.67071568355750
H            0.61807904794084        0.45904262591090        9.23238390957942
C            7.19388492740849        3.27931061199897       10.56404768135288
C            8.68755874855393        3.18475345646331       10.20989566348261
H            9.11089719341082        4.17659663637594       10.05069943778565
H            9.23154507866048        2.70127392364778       11.02174500286283
H            8.83108131521518        2.59949666056147        9.30292418432578
C            7.02927575695929        4.00161113166623       11.91068048240010
H            5.98168116755404        4.22791427196886       12.10470585799672
H            7.39489889891269        3.35356915356402       12.70906510782006
H            7.60405590160507        4.92299858885205       11.95478143230187
C            6.64540416806435        1.84935043463104       10.77112773818087
H            6.93431577143210        1.18369933845300        9.96013453052964
H            7.04847986899009        1.43249739418765       11.69439935591507
H            5.55728591355940        1.86741910938847       10.84348844268976
C            3.97225627751965        6.79071658175445        8.59522795988248
C            4.71817317133232        8.10730978619884        8.33664608117778
H            5.16081418807170        8.08794023494507        7.34095544346786
H            4.02237405871202        8.94560778271464        8.39114582292738
H            5.49910827140086        8.26658275921947        9.07624394683203
C            3.37546059465342        6.79877318876277       10.01493875816995
H            2.58258396239258        7.54536769324818       10.07655266974460
H            2.95128747648023        5.82274062489579       10.25081124788399
H            4.12549779834263        7.04077226904788       10.76391361420892
C            2.79165340274297        6.73519342240611        7.60730909102921
H            3.12317198325598        6.87924051541413        6.57884997140244
H            2.26237482045113        5.78486917903622        7.68038977696737
H            2.08805269630213        7.53424453090861        7.84426591456648
O            9.68371510748761        4.78892938479193       -0.68008883769741
O            6.15233372833512        6.11521086500482       10.39748260512824
O           -0.57703975304556        1.09240197263187        6.29803261603912
O           13.43761400063230       -1.05235925019104        4.26165012865172
C           -0.78399582401626       -0.29993919327671        6.50795864054836
H           -0.58566004267408       -0.88179596849571        5.60191487596698
H           -0.14131802434156       -0.68057763298059        7.30934532621905
H           -1.83074685637558       -0.42092122291146        6.78983593312008
C            7.40694957507421        6.77246450336382       10.25716070485181
H            7.57457017334441        7.33158758035854       11.17847582662367
H            8.22307060622749        6.05900229119138       10.10672982314160
H            7.39691136528640        7.46517785858738        9.40879946449384
C           13.16669156900250       -2.44761163354148        4.28080830951516
H           12.49203253993641       -2.73320566163363        3.46463520186262
H           14.12449723814900       -2.95447283052669        4.15618544271203
H           12.71427728717726       -2.75263669306780        5.23128658167020
C           10.75422578175356        4.07674451152875       -1.28827971824149
H           10.58382225349549        2.99534554517360       -1.25215986539731
H           10.79964899268727        4.40468363484564       -2.32808991276388
H           11.71292079688048        4.29069531301896       -0.80285877935181
           -------------------------------------------------
          |                Final Singlepoint                |
           -------------------------------------------------

          ...................................................
          :                      SETUP                      :
          :.................................................:
          :  # basis functions                 602          :
          :  # atomic orbitals                 599          :
          :  # shells                          401          :
          :  # electrons                       508          :
          :  # halogen bonds                     0          :
          :  max. iterations                   250          :
          :  Hamiltonian                  GFN1-xTB          :
          :  restarted?                      false          :
          :  GBSA solvation                  false          :
          :  PC potential                    false          :
          :  electronic temp.          300.0000000     K    :
          :  accuracy                    1.0000000          :
          :  -> integral cutoff          0.2500000E+02      :
          :  -> integral neglect         0.1000000E-07      :
          :  -> SCF convergence          0.1000000E-05 Eh   :
          :  -> wf. convergence          0.2000000E-04 e    :
          :  Broyden damping             0.4000000          :
          :  net charge                          0          :
          :  unpaired electrons                  0          :
          ...................................................

 iter      E             dE          RMSdq      gap      omega  full diag
   1   -290.8298503 -0.290830E+03  0.508E-05    0.93       0.0  T
   2   -290.8298503  0.607838E-08  0.958E-05    0.93      74.0  T
   3   -290.8298503 -0.807654E-08  0.102E-05    0.93     694.1  T

   *** convergence criteria satisfied after 3 iterations ***

         #    Occupation            Energy/Eh            Energy/eV
      -------------------------------------------------------------
         1        2.0000           -0.8377870             -22.7973
       ...           ...                  ...                  ...
       248        2.0000           -0.4191956             -11.4069
       249        2.0000           -0.4174360             -11.3590
       250        2.0000           -0.4121839             -11.2161
       251        2.0000           -0.4080967             -11.1049
       252        2.0000           -0.3847282             -10.4690
       253        2.0000           -0.3749800             -10.2037
       254        2.0000           -0.3723939             -10.1334 (HOMO)
       255                         -0.3380587              -9.1990 (LUMO)
       256                         -0.3083694              -8.3912
       257                         -0.2867250              -7.8022
       258                         -0.2778569              -7.5609
       259                         -0.2752932              -7.4911
       ...                                ...                  ...
       599                          1.5505053              42.1914
      -------------------------------------------------------------
                  HL-Gap            0.0343353 Eh            0.9343 eV
             Fermi-level           -0.3551961 Eh           -9.6654 eV

 SCC (total)                   0 d,  0 h,  0 min,  0.193 sec
 SCC setup                      ...        0 min,  0.001 sec (  0.443%)
 Dispersion                     ...        0 min,  0.005 sec (  2.735%)
 classical contributions        ...        0 min,  0.000 sec (  0.224%)
 integral evaluation            ...        0 min,  0.020 sec ( 10.304%)
 iterations                     ...        0 min,  0.119 sec ( 61.555%)
 molecular gradient             ...        0 min,  0.042 sec ( 21.583%)
 printout                       ...        0 min,  0.006 sec (  3.118%)

         :::::::::::::::::::::::::::::::::::::::::::::::::::::
         ::                     SUMMARY                     ::
         :::::::::::::::::::::::::::::::::::::::::::::::::::::
         :: total energy            -287.426998352883 Eh    ::
         :: gradient norm              0.002397339219 Eh/a0 ::
         :: HOMO-LUMO gap              0.934310074163 eV    ::
         ::.................................................::
         :: SCC energy              -290.829850335893 Eh    ::
         :: -> electrostatic           0.492150477324 Eh    ::
         :: repulsion energy           3.625619435538 Eh    ::
         :: dispersion energy         -0.222767452528 Eh    ::
         :: halogen bond corr.         0.000000000000 Eh    ::
         :: add. restraining           0.000000000000 Eh    ::
         :: total charge               0.000000001867 e     ::
         :::::::::::::::::::::::::::::::::::::::::::::::::::::

           -------------------------------------------------
          |                Property Printout                |
           -------------------------------------------------

    * Orbital Energies and Occupations

         #    Occupation            Energy/Eh            Energy/eV
      -------------------------------------------------------------
         1        2.0000           -0.8377870             -22.7973
       ...           ...                  ...                  ...
       242        2.0000           -0.4288122             -11.6686
       243        2.0000           -0.4274462             -11.6314
       244        2.0000           -0.4257864             -11.5862
       245        2.0000           -0.4246748             -11.5560
       246        2.0000           -0.4225657             -11.4986
       247        2.0000           -0.4216239             -11.4730
       248        2.0000           -0.4191956             -11.4069
       249        2.0000           -0.4174360             -11.3590
       250        2.0000           -0.4121839             -11.2161
       251        2.0000           -0.4080967             -11.1049
       252        2.0000           -0.3847282             -10.4690
       253        2.0000           -0.3749800             -10.2037
       254        2.0000           -0.3723939             -10.1334 (HOMO)
       255                         -0.3380587              -9.1990 (LUMO)
       256                         -0.3083694              -8.3912
       257                         -0.2867250              -7.8022
       258                         -0.2778569              -7.5609
       259                         -0.2752932              -7.4911
       260                         -0.2741665              -7.4604
       261                         -0.2688904              -7.3169
       262                         -0.2654797              -7.2241
       263                         -0.2635605              -7.1718
       264                         -0.2633963              -7.1674
       265                         -0.2615920              -7.1183
       ...                                ...                  ...
       599                          1.5505053              42.1914
      -------------------------------------------------------------
                  HL-Gap            0.0343353 Eh            0.9343 eV
             Fermi-level           -0.3551961 Eh           -9.6654 eV

 dipole moment from electron density (au)
     X       Y       Z   
   0.0900  -0.5950  -0.8886  total (Debye):    2.728

           -------------------------------------------------
          |                Geometry Summary                 |
           -------------------------------------------------

 * 187 selected distances

     #   Z          #   Z                                           value/Å
     1  44 Ru       2  15 P                                       2.3275068 (max)
     1  44 Ru       3  15 P                                       2.3118476
     2  15 P        8   6 C                                       1.8381638
     8   6 C        9   6 C                                       1.3871106
     9   6 C       10   1 H                                       1.0776727
     9   6 C       11   6 C                                       1.3955279
    11   6 C       12   6 C                                       1.4051170
    12   6 C       13   6 C                                       1.4133657
     8   6 C       14   6 C                                       1.3992184
    13   6 C       14   6 C                                       1.3867210
    14   6 C       15   1 H                                       1.0822843
     2  15 P       16   6 C                                       1.8381584
    16   6 C       17   6 C                                       1.3957200
    17   6 C       18   1 H                                       1.0796302
    17   6 C       19   6 C                                       1.3885295
    19   6 C       20   6 C                                       1.4120566
    20   6 C       21   6 C                                       1.4053233
    16   6 C       22   6 C                                       1.3911220
    21   6 C       22   6 C                                       1.3939847
    22   6 C       23   1 H                                       1.0769816
     2  15 P       24   6 C                                       1.8374616
    24   6 C       25   6 C                                       1.3923356
    25   6 C       26   1 H                                       1.0804968
    25   6 C       27   6 C                                       1.3957103
    27   6 C       28   1 H                                       1.0813034
     4   8 O       29   6 C                                       1.3623682
    27   6 C       29   6 C                                       1.3726331
     4   8 O       30   6 C                                       1.4191934
     5   8 O       30   6 C                                       1.4190854
    30   6 C       31   1 H                                       1.1017422
    30   6 C       32   1 H                                       1.1032857
     5   8 O       33   6 C                                       1.3679461
    29   6 C       33   6 C                                       1.3978411
    24   6 C       34   6 C                                       1.4226580
    33   6 C       34   6 C                                       1.3811460
     6   8 O       36   6 C                                       1.3710435
    35   6 C       36   6 C                                       1.3820195
     6   8 O       37   6 C                                       1.4175627
     7   8 O       37   6 C                                       1.4213817
    37   6 C       38   1 H                                       1.1054740
    37   6 C       39   1 H                                       1.0980485
     7   8 O       40   6 C                                       1.3654878
    36   6 C       40   6 C                                       1.3980037
    40   6 C       41   6 C                                       1.3720457
    41   6 C       42   1 H                                       1.0813337
    41   6 C       43   6 C                                       1.3968721
    43   6 C       44   1 H                                       1.0787713
     3  15 P       45   6 C                                       1.8372190
    35   6 C       45   6 C                                       1.4198236
    43   6 C       45   6 C                                       1.3909426
     3  15 P       46   6 C                                       1.8624092
    46   6 C       47   6 C                                       1.3914245
    47   6 C       48   1 H                                       1.0807356
    47   6 C       49   6 C                                       1.3939009
    49   6 C       50   6 C                                       1.4106870
    50   6 C       51   6 C                                       1.4075345
    46   6 C       52   6 C                                       1.3933512
    51   6 C       52   6 C                                       1.3908705
    52   6 C       53   1 H                                       1.0833117
     3  15 P       54   6 C                                       1.8377943
    54   6 C       55   6 C                                       1.3956138
    55   6 C       56   1 H                                       1.0822658
    55   6 C       57   6 C                                       1.3909203
    57   6 C       58   6 C                                       1.4083330
    58   6 C       59   6 C                                       1.4064587
    54   6 C       60   6 C                                       1.3909064
    59   6 C       60   6 C                                       1.3930709
    60   6 C       61   1 H                                       1.0767142 (min)
     1  44 Ru      63   8 O                                       1.9481121
    62   8 O       64   6 C                                       1.2945672
    63   8 O       65   6 C                                       1.2797387
    66   6 C       67   1 H                                       1.0906562
    66   6 C       68   1 H                                       1.0930670
    66   6 C       69   1 H                                       1.0869976
    70   6 C       71   1 H                                       1.0885333
    70   6 C       72   1 H                                       1.0880847
    70   6 C       73   1 H                                       1.0862223
    65   6 C       74   8 O                                       1.2248879
    64   6 C       75   8 O                                       1.2180932
    76   6 C       78   6 C                                       1.5367925
    78   6 C       79   1 H                                       1.0870604
    78   6 C       80   1 H                                       1.0918581
    78   6 C       81   1 H                                       1.0887568
    76   6 C       82   6 C                                       1.5389807
    82   6 C       83   1 H                                       1.0903743
    82   6 C       84   1 H                                       1.0900745
    82   6 C       85   1 H                                       1.0907452
    86   6 C       87   1 H                                       1.0890570
    86   6 C       88   1 H                                       1.0898538
    86   6 C       89   1 H                                       1.0904530
    77   6 C       90   6 C                                       1.5378229
    90   6 C       91   1 H                                       1.0872366
    90   6 C       92   1 H                                       1.0892122
    90   6 C       93   1 H                                       1.0914609
    77   6 C       94   6 C                                       1.5385854
    94   6 C       95   1 H                                       1.0891269
    94   6 C       96   1 H                                       1.0901617
    94   6 C       97   1 H                                       1.0904742
    98   6 C       99   1 H                                       1.0888256
    98   6 C      100   1 H                                       1.0902891
    98   6 C      101   1 H                                       1.0904669
   102   6 C      103   6 C                                       1.5385043
   103   6 C      104   1 H                                       1.0906157
   103   6 C      105   1 H                                       1.0902267
   103   6 C      106   1 H                                       1.0895575
   102   6 C      107   6 C                                       1.5373558
   107   6 C      108   1 H                                       1.0897980
   107   6 C      109   1 H                                       1.0912804
   107   6 C      110   1 H                                       1.0867417
   111   6 C      112   1 H                                       1.0904766
   111   6 C      113   1 H                                       1.0885126
   111   6 C      114   1 H                                       1.0891501
   116   6 C      117   1 H                                       1.0910827
   116   6 C      118   1 H                                       1.0874092
   116   6 C      119   1 H                                       1.0905948
   115   6 C      120   6 C                                       1.5400132
   120   6 C      121   1 H                                       1.0891092
   120   6 C      122   1 H                                       1.0872712
   120   6 C      123   1 H                                       1.0910025
   115   6 C      124   6 C                                       1.5361809
   124   6 C      125   1 H                                       1.0888629
   124   6 C      126   1 H                                       1.0889671
   124   6 C      127   1 H                                       1.0911188
   129   6 C      130   1 H                                       1.0903867
   129   6 C      131   1 H                                       1.0882566
   129   6 C      132   1 H                                       1.0906686
   128   6 C      133   6 C                                       1.5378217
   133   6 C      134   1 H                                       1.0892567
   133   6 C      135   1 H                                       1.0912861
   133   6 C      136   1 H                                       1.0865637
   128   6 C      137   6 C                                       1.5382599
   137   6 C      138   1 H                                       1.0904981
   137   6 C      139   1 H                                       1.0899998
   137   6 C      140   1 H                                       1.0898728
   141   6 C      142   6 C                                       1.5385093
   142   6 C      143   1 H                                       1.0903220
   142   6 C      144   1 H                                       1.0892281
   142   6 C      145   1 H                                       1.0905673
   146   6 C      147   1 H                                       1.0904729
   146   6 C      148   1 H                                       1.0908277
   146   6 C      149   1 H                                       1.0886230
   141   6 C      150   6 C                                       1.5386515
   150   6 C      151   1 H                                       1.0910912
   150   6 C      152   1 H                                       1.0868539
   150   6 C      153   1 H                                       1.0902070
   154   6 C      155   6 C                                       1.5379944
   155   6 C      156   1 H                                       1.0900972
   155   6 C      157   1 H                                       1.0903087
   155   6 C      158   1 H                                       1.0889085
   154   6 C      159   6 C                                       1.5369563
   159   6 C      160   1 H                                       1.0891802
   159   6 C      161   1 H                                       1.0913555
   159   6 C      162   1 H                                       1.0868635
   163   6 C      164   1 H                                       1.0882424
   163   6 C      165   1 H                                       1.0902601
   163   6 C      166   1 H                                       1.0906714
   167   6 C      168   6 C                                       1.5351465
   168   6 C      169   1 H                                       1.0898194
   168   6 C      170   1 H                                       1.0908026
   168   6 C      171   1 H                                       1.0873053
   167   6 C      172   6 C                                       1.5400679
   172   6 C      173   1 H                                       1.0908039
   172   6 C      174   1 H                                       1.0900452
   172   6 C      175   1 H                                       1.0872364
   176   6 C      177   1 H                                       1.0901296
   176   6 C      178   1 H                                       1.0902261
   176   6 C      179   1 H                                       1.0907270
    50   6 C      180   8 O                                       1.3823474
    12   6 C      181   8 O                                       1.3785835
    20   6 C      182   8 O                                       1.3800307
    58   6 C      183   8 O                                       1.3787238
   182   8 O      184   6 C                                       1.4232056
   184   6 C      185   1 H                                       1.0949018
   184   6 C      186   1 H                                       1.0955096
   184   6 C      187   1 H                                       1.0907701
   181   8 O      188   6 C                                       1.4232828
   188   6 C      189   1 H                                       1.0906590
   188   6 C      190   1 H                                       1.0944001
   188   6 C      191   1 H                                       1.0952943
   183   8 O      192   6 C                                       1.4214414
   192   6 C      193   1 H                                       1.0967532
   192   6 C      194   1 H                                       1.0907938
   192   6 C      195   1 H                                       1.0959599
   180   8 O      196   6 C                                       1.4223561
   196   6 C      197   1 H                                       1.0953383
   196   6 C      198   1 H                                       1.0912437
   196   6 C      199   1 H                                       1.0956755

 * 6 distinct bonds (by element types)

   Z      Z             #   av. dist./Å        max./Å        min./Å
   1 H    6 C         106     1.0894919     1.1054740     1.0767142
   6 C    6 C          52     1.4399335     1.5400679     1.3720457
   6 C    8 O          20     1.3685664     1.4232828     1.2180932
   6 C   15 P           6     1.8418677     1.8624092     1.8372190
   8 O   44 Ru          1     1.9481121     1.9481121     1.9481121
  15 P   44 Ru          2     2.3196772     2.3275068     2.3118476


optimized geometry written to: xtbopt.xyz


           -------------------------------------------------
          | TOTAL ENERGY             -287.426998352883 Eh   |
          | GRADIENT NORM               0.002397339219 Eh/α |
          | HOMO-LUMO GAP               0.934310074163 eV   |
           -------------------------------------------------
           ------------------------------------------------- 
          |               Molecular Dynamics                |
           ------------------------------------------------- 
 trajectories on xtb.trj or xtb.trj.<n>
 
 MD time /ps        :    1.00
 dt /fs             :    1.00
 SCC accuracy       :    2.00
 temperature /K     :  500.00
 max steps          :  1000
 block length (av.) :  5000
 dumpstep(trj) /fs  :   10.00    10
 dumpstep(coords)/fs: 1000.00  1000
 H atoms mass (amu) :     1
 # deg. of freedom  :   491
 SHAKE on. # bonds  :         106  all: F
 Berendsen THERMOSTAT on
         time (ps)    <Epot>      Ekin   <T>   T     Etot
      0    0.00      0.00000   1.0099    0.    0.  -286.41709
est. speed in wall clock h for 100 ps : 11.60
    200    0.20   -285.62023   0.4310  497.  554.  -286.66994
    400    0.40   -286.32753   0.4011  493.  516.  -286.66136
    600    0.60   -286.56489   0.3813  494.  490.  -286.65048
    800    0.80   -286.68267   0.3940  493.  507.  -286.66412
 average properties 
 Epot               :  -286.754198405712     
 Epot (accurate SCC):  -287.040521687300     
 Ekin               :  0.384475670621063     
 Etot               :  -286.369722735091     
 T                  :   494.533315116931     
 normal exit of md()

------------------------------------------------------------------------
 * finished run on 2026/07/14 at 21:44:05.615     
------------------------------------------------------------------------
 total:
 * wall-time:     0 d,  0 h,  8 min, 49.216 sec
 *  cpu-time:     0 d,  1 h,  9 min, 59.085 sec
 * ratio c/w:     7.935 speedup
 SCF:
 * wall-time:     0 d,  0 h,  0 min,  0.666 sec
 *  cpu-time:     0 d,  0 h,  0 min,  4.592 sec
 * ratio c/w:     6.892 speedup
 ANC optimizer:
 * wall-time:     0 d,  0 h,  1 min, 25.370 sec
 *  cpu-time:     0 d,  0 h, 11 min, 59.729 sec
 * ratio c/w:     8.431 speedup
 MD:
 * wall-time:     0 d,  0 h,  7 min, 23.106 sec
 *  cpu-time:     0 d,  0 h, 57 min, 54.472 sec
 * ratio c/w:     7.841 speedup

normal termination of xtb
