199
 energy: -287.426998352883 gnorm: 0.002397339219 xtb: 6.7.1 (edcfbbe)
Ru           6.57410374581895        0.79826821725778        5.03268732876968
P            5.21391063006872        2.58083231786190        5.65688824516952
P            8.37431478877749        2.17075278950033        4.56347008142588
O            5.79749720692219        6.79763656290764        1.50223038709928
O            7.51246968566139        6.52859773763845        3.00201836287496
O            7.18296333035512        7.13285884119429        5.84557234796112
O            8.90861253669153        7.38540056769073        7.33573335393733
C            5.48360756994890        3.56760505632662        7.18410420977910
C            6.23764085869335        3.13939107924080        8.26675934882405
H            6.70544066619343        2.16970334386504        8.21935472797272
C            6.42422529301433        3.92662573783570        9.40383698669218
C            5.83979688866472        5.20441541116910        9.41094098804430
C            4.90052581747296        5.58129449803672        8.42436393970421
C            4.78055762129639        4.77129324638826        7.30521233638852
H            4.13015660685255        5.06151131902050        6.49029452082809
C            3.43840371063340        2.14480988684492        5.84737535841835
C            2.75903204075754        2.37716670262031        7.04424555665262
H            3.30850463058164        2.80547591422974        7.86900755226559
C            1.41408603675387        2.06946554420283        7.20062388112868
C            0.73107005552869        1.48951862660341        6.10926956759969
C            1.35373327305687        1.34037167225894        4.85827838067454
C            2.71937959086721        1.60981391260052        4.78341870478925
H            3.23944129760008        1.40736722030841        3.86231055564152
C            5.29650260203526        3.93298615551309        4.41546845166589
C            4.25792080480097        4.14108048997382        3.51178562181311
H            3.36108613136160        3.54421395321527        3.59491820082810
C            4.30920093965840        5.08703248979610        2.48682126302785
H            3.48316210785650        5.21643218098257        1.80115930591732
C            5.46209760934916        5.82654197519308        2.39695328335761
C            7.10494012204554        7.23412143123605        1.84014107127666
H            7.09408999935026        8.31618247117815        2.04717184377231
H            7.79798999614727        7.01224519126971        1.01086919401540
C            6.50262462960388        5.66072384967627        3.31552133215349
C            6.47226570252075        4.72994028928305        4.33546455347102
C            7.58251019291379        4.74556345865013        5.32408705314315
C            7.84064209218767        5.93687388435030        5.97533587100651
C            7.93910124792100        8.08831115141976        6.57003755392486
H            8.44724691525698        8.77383312224660        5.86724310160793
H            7.28168651754541        8.65734887160566        7.24064340192590
C            8.87869575743925        6.09205334638099        6.89879567530341
C            9.69318241174713        5.04185656186162        7.23968739485186
H           10.49245779582717        5.13999682478751        7.96135886412670
C            9.46288665644160        3.83603408230321        6.57319863721609
H           10.11201853025836        3.00695358924357        6.80772100071265
C            8.46700278650637        3.67388950389415        5.61578268168278
C            8.60272605481902        3.06152189135810        2.94392506260710
C            7.79610647951317        2.90487392587004        1.82103236932486
H            6.92499406765813        2.27102112550177        1.90695680140776
C            8.10396922481538        3.52598108635863        0.61173267145738
C            9.26821275372467        4.32035968116515        0.55226024124150
C            9.99345393738997        4.64662448096483        1.71360842259398
C            9.66632194030238        3.95918264741470        2.87762248360300
H           10.26072459097002        4.11420701540579        3.76993237455252
C            9.96533736905567        1.25091925560548        4.56984307706244
C           10.48170855653315        0.88130782324916        3.32706973025860
H            9.92365751885395        1.14601050999044        2.43835683153942
C           11.67645955169318        0.18267025759760        3.18874172518681
C           12.33617764953616       -0.22926757767094        4.36282897172440
C           11.88662551790966        0.18231927125376        5.63035604543777
C           10.68742674604893        0.88763496902685        5.70175814073537
H           10.30079734190446        1.13641337472012        6.67538043386522
O            7.91244165586385        1.13340354716257        6.59044991333225
O            5.61964168281415       -0.03159052521746        3.55097328887212
C            8.13158749348241        0.29796417646852        7.55477355331952
C            4.99692567363279        0.40531903922154        2.52186408673381
C            7.17982275064268       -0.89211985918538        7.59916336767226
H            6.16063353868959       -0.53259625659185        7.74588382657508
H            7.23562698401480       -1.42600031017922        6.64698021544356
H            7.45037987000703       -1.56453985897183        8.40923364866303
C            4.60148699665768       -0.67847123956813        1.52782921987614
H            5.49650924504679       -0.99976697711963        0.99810406659879
H            4.18625654590057       -1.53183558846550        2.06007069666083
H            3.87953095274175       -0.28251728338795        0.81939526628566
O            4.72532224376992        1.58173849315192        2.31542052888797
O            9.01496040149697        0.42444809980346        8.38387246211001
C           12.16662241354060       -0.04941027313552        1.75207150594217
C           12.60596497714701       -0.08035753797647        6.96121011189463
C           13.63092667208716       -0.49888310704773        1.62749984598598
H           13.76485528288271       -1.53605853635997        1.92419881156147
H           13.93992763973049       -0.41539876729236        0.58361164705934
H           14.28352180398425        0.13102405621518        2.22976868449512
C           11.26115877205841       -1.09733015271847        1.08090793562770
H           11.31697887196026       -2.04405433114745        1.61897230969301
H           10.22320069101032       -0.76435030497488        1.07546786688906
H           11.57881102084920       -1.26359272263114        0.05077265347761
C           12.06325036102594        1.28172258117831        0.97608338281280
H           11.03202368678602        1.61086850019513        0.85658709344872
H           12.61695941207633        2.05904737015272        1.50234721784494
H           12.49122648712034        1.16408867489227       -0.01995187393169
C           14.10121698217091       -0.40723050232937        6.81196437101416
H           14.26186799351970       -1.42256361512961        6.45788354688578
H           14.58484431718350        0.28742749659580        6.12644418834997
H           14.58541767279181       -0.32280892027840        7.78649466952386
C           11.89950183867051       -1.23643448186412        7.69034689582886
H           10.86251533237646       -0.97656840195481        7.89849514130110
H           11.91443305819540       -2.14272430855013        7.08465054768987
H           12.40282081927896       -1.44161632486195        8.63570623067238
C           12.51391069772973        1.18176533202322        7.84753025651596
H           11.50567957237744        1.33115452944551        8.23053642882523
H           13.17725034977058        1.07536561171630        8.70624423159974
H           12.81493303450472        2.06559199149179        7.28418854127958
C           11.08217108296119        5.72282580021695        1.82697148346163
C           12.46731846071564        5.05761683752333        1.90351532210462
H           13.23896391436388        5.81503618434071        2.04606952435851
H           12.50610144417002        4.35886935394415        2.73948294208428
H           12.68731553267934        4.51049007652720        0.98733357233115
C           11.05882200809503        6.74769607500705        0.68130220690061
H           10.04027218298453        7.08212028745836        0.48540406892512
H           11.65758477905579        7.61629122311679        0.96044078802400
H           11.47622548632937        6.34718445327424       -0.23868267009122
C           10.86196964986253        6.52315429917927        3.13058491229837
H           11.52940892023243        7.38531329759883        3.14917963150085
H            9.83481831507726        6.87875241767638        3.18863359753029
H           11.07257211914592        5.92590950092501        4.01669608506725
C            7.17812455144474        3.36568959043418       -0.60237011165300
C            7.85835659999451        2.53130980657535       -1.70440203944068
H            7.10927721199007        2.18434335310375       -2.41781325608986
H            8.58713113216590        3.12382690464578       -2.25237077435731
H            8.35401281337037        1.66078241771305       -1.27323634602687
C            6.78766037293997        4.74503110417537       -1.16503773488826
H            6.28192396843127        5.33127445372694       -0.39906897330146
H            7.65248973030168        5.30166275991130       -1.51772712767997
H            6.10308125435350        4.61303628656238       -2.00421288697895
C            5.86810142725382        2.65381008721408       -0.23234518418951
H            6.04728168087107        1.62062283568413        0.06098173107452
H            5.35470103097068        3.16902214722708        0.57810262478200
H            5.20610476629038        2.64563252796818       -1.09965920646752
C            0.65669866662956        0.96887687139690        3.54088288314003
C            1.20242706601016        1.87054352052109        2.41034796296550
H            1.12727598598267        2.91972729273282        2.69759130120519
H            2.23929915949032        1.64691431434341        2.16706123548998
H            0.61373969596389        1.71805692678364        1.50494591478404
C           -0.86491409238472        1.19066519447384        3.56087847673584
H           -1.10421145560910        2.16179924782128        3.99228938178099
H           -1.24435189359595        1.16559794841459        2.53798859163325
H           -1.38965349091690        0.41984516277868        4.11864675014681
C            0.97043196356592       -0.49499556707626        3.18748231795904
H            0.51608880953752       -0.75445290122484        2.23069595936950
H            2.04778894525431       -0.64332778283013        3.11400597844848
H            0.58453161152188       -1.17219870221960        3.94925618826243
C            0.67899279039248        2.49873637754188        8.47731036270214
C            1.63039956100083        3.12657538431449        9.51058375136384
H            2.38393969595832        2.41083828874456        9.84027999555415
H            2.12750265127739        4.00871792755174        9.10917275063004
H            1.05481259551836        3.43921954204805       10.38252985872240
C           -0.35292014706991        3.57026096093953        8.07643068983611
H           -0.86869127161733        3.94246974257768        8.96219118570176
H            0.14886134055607        4.40643102238729        7.58761600378988
H           -1.09193510426292        3.15966164684671        7.39059919716533
C           -0.03399293011614        1.33127042429160        9.18167005773285
H           -0.29557188375153        1.62331231995940       10.19988800414344
H           -0.95554220752887        1.06495534544201        8.67071568355750
H            0.61807904794084        0.45904262591090        9.23238390957942
C            7.19388492740849        3.27931061199897       10.56404768135288
C            8.68755874855393        3.18475345646331       10.20989566348261
H            9.11089719341082        4.17659663637594       10.05069943778565
H            9.23154507866048        2.70127392364778       11.02174500286283
H            8.83108131521518        2.59949666056147        9.30292418432578
C            7.02927575695929        4.00161113166623       11.91068048240010
H            5.98168116755404        4.22791427196886       12.10470585799672
H            7.39489889891269        3.35356915356402       12.70906510782006
H            7.60405590160507        4.92299858885205       11.95478143230187
C            6.64540416806435        1.84935043463104       10.77112773818087
H            6.93431577143210        1.18369933845300        9.96013453052964
H            7.04847986899009        1.43249739418765       11.69439935591507
H            5.55728591355940        1.86741910938847       10.84348844268976
C            3.97225627751965        6.79071658175445        8.59522795988248
C            4.71817317133232        8.10730978619884        8.33664608117778
H            5.16081418807170        8.08794023494507        7.34095544346786
H            4.02237405871202        8.94560778271464        8.39114582292738
H            5.49910827140086        8.26658275921947        9.07624394683203
C            3.37546059465342        6.79877318876277       10.01493875816995
H            2.58258396239258        7.54536769324818       10.07655266974460
H            2.95128747648023        5.82274062489579       10.25081124788399
H            4.12549779834263        7.04077226904788       10.76391361420892
C            2.79165340274297        6.73519342240611        7.60730909102921
H            3.12317198325598        6.87924051541413        6.57884997140244
H            2.26237482045113        5.78486917903622        7.68038977696737
H            2.08805269630213        7.53424453090861        7.84426591456648
O            9.68371510748761        4.78892938479193       -0.68008883769741
O            6.15233372833512        6.11521086500482       10.39748260512824
O           -0.57703975304556        1.09240197263187        6.29803261603912
O           13.43761400063230       -1.05235925019104        4.26165012865172
C           -0.78399582401626       -0.29993919327671        6.50795864054836
H           -0.58566004267408       -0.88179596849571        5.60191487596698
H           -0.14131802434156       -0.68057763298059        7.30934532621905
H           -1.83074685637558       -0.42092122291146        6.78983593312008
C            7.40694957507421        6.77246450336382       10.25716070485181
H            7.57457017334441        7.33158758035854       11.17847582662367
H            8.22307060622749        6.05900229119138       10.10672982314160
H            7.39691136528640        7.46517785858738        9.40879946449384
C           13.16669156900250       -2.44761163354148        4.28080830951516
H           12.49203253993641       -2.73320566163363        3.46463520186262
H           14.12449723814900       -2.95447283052669        4.15618544271203
H           12.71427728717726       -2.75263669306780        5.23128658167020
C           10.75422578175356        4.07674451152875       -1.28827971824149
H           10.58382225349549        2.99534554517360       -1.25215986539731
H           10.79964899268727        4.40468363484564       -2.32808991276388
H           11.71292079688048        4.29069531301896       -0.80285877935181
